#atom_style bond #no stiffness
atom_style angle #with stiffness

boundary        p p p
###
# Pair interactions require lists of neighbours to be calculated
###

#neighbor 0.3 bin
neighbor 4 bin

neigh_modify every 1 delay 1 check yes
atom_modify sort 0 0
### Generate RESTART file, SPECIAL format, not a .txt file ###
### Useful if simulation crashes ###

restart 10000 lin500.restart
#############################



### READ "start" data file ###

read_data lin500.dat
Reading data file ...
  orthogonal box = (-1000.0000 -1000.0000 -1000.0000) to (1000.0000 1000.0000 1000.0000)
  1 by 1 by 1 MPI processor grid
  reading atoms ...
  500 atoms
  scanning bonds ...
  1 = max bonds/atom
  scanning angles ...
  1 = max angles/atom
  reading bonds ...
  499 bonds
  reading angles ...
  498 angles
Finding 1-2 1-3 1-4 neighbors ...
  special bond factors lj:    0        0        0       
  special bond factors coul:  0        0        0       
     2 = max # of 1-2 neighbors
     2 = max # of 1-3 neighbors
     4 = max # of 1-4 neighbors
     6 = max # of special neighbors
  special bonds CPU = 0.003 seconds
  read_data CPU = 0.018 seconds

######################

### READ "REstart" data file ###

######################



###
# Define groups (atom type 1 is group 'all')
###
group all type 1
500 atoms in group all


###
# Dump configs - "simple dumpings"
###

###
# Dump configs + box coords
###

dump   1   all   custom   1000  lin500.lammpstrj  id  x y z  ix iy iz
dump_modify   1   format line "%d %.5f %.5f %.5f %d %d %d"

########################################################################


###################################################################
# Stiffness term
#
# E = K * (1+cos(theta)), K>0
#
angle_style   cosine
#change this coefficient to change stiffness (e.g. 1,5,10)
angle_coeff   1 1.0
###################################################################

###################################################################
# Pair interaction between non-bonded atoms
#
#  Lennard-Jones 12-6 potential with cutoff:
#  potential E=4epsilon[ (sigma/r)^12 - (sigma/r)^6]  for r<r_cut
#
#  1.12246 = 2^(1/6) is the minimum of the potential


pair_style      lj/cut 1.12246152962189
#pair_style      lj/cut 3

#
#  pair_modify shift yes adds a constant to the potential such

#  that E(r_cut)=0. Forces remains unchanged.
#

pair_modify     shift yes

#
#  pair_coeff for lj/cut, specify 4:
#    * atom type interacting with
#    * atom type
#    * epsilon (energy units)
#    * sigma (distance units)
#

pair_coeff      1 1 1.0 1.0
###################################################################

###################################################################
# Pair interaction between non-bonded atoms
#
#  soft potential, for PUSHING apart overlapping atoms
#  potential E=A*(1 + cos(pi*r/r_c))
#
#  1.12246 = 2^(1/6) is the cut-off r_c

#pair_style     soft 1.12246152962189

#
#  pair_coeff for soft, specify 3:
#    * atom type interacting with
#    * atom type
#    * A
#
#

#pair_coeff      1 1 100.0
###################################################################

###################################################################
# Pair interaction between bonded atoms
#
# Fene potential + Lennard Jones 12-6:

#
#  E= - 0.5 K R0^2 ln[ 1- (r/R0)^2]
#     + 4epsilon[ (sigma/r)^12 - (sigma/r)^6] + epsilon
#

bond_style   fene


#
# For style fene, specify:
#   * bond type
#   * K (energy/distance^2)
#   * R0 (distance)
#   * epsilon (energy)  (LJ component)
#   * sigma (distance)  (LJ component)
#


special_bonds fene #<=== I M P O R T A N T (new command)
Finding 1-2 1-3 1-4 neighbors ...
  special bond factors lj:    0        1        1       
  special bond factors coul:  0        1        1       
     2 = max # of 1-2 neighbors
     6 = max # of special neighbors
  special bonds CPU = 0.002 seconds

bond_coeff   1   30   1.5   1.0   1.0


###################################################

###################################################################
# Pair interaction between bonded atoms
#
# Harmonic potential:
#
#  E= K * (R-R0)^2
#

#bond_style   harmonic

#
# For style harmonic, specify:
#   * bond type
#   * K (energy/distance^2)
#   * R0 (distance)
#

#bond_coeff   1   60.0   1.0
#bond_coeff   2   harmonic 0.1   1.0

###################################################
compute 1 all gyration
#compute 2 all coord/atom cutoff 1.1

#dump 2 all custom 10000 contact_number.dump id c_2


###
# Set up fixes
###
thermo_style   custom   step  temp enthalpy c_1
fix 1 all nve   ###NVE ensemble

fix 2 all   langevin   1.0 1.0 1.0  278111   ###Langevin integrator Tstart Tstop 1/friction rndseed


##### Sample thermodynamic info  (temperature, energy, pressure, etc.) #####
thermo 1000









############################################################################

###
# set timestep of integrator

timestep 0.01

###
# run integration for a number of steps
###
#run 0
#variable r equal c_1
#if "$r < 63.1" then "quit 1"
run 2000000
Neighbor list info ...
  update every 1 steps, delay 1 steps, check yes
  max neighbors/atom: 2000, page size: 100000
  master list distance cutoff = 5.1224615
  ghost atom cutoff = 5.1224615
  binsize = 2.5612308, bins = 781 781 781
  1 neighbor lists, perpetual/occasional/extra = 1 0 0
  (1) pair lj/cut, perpetual
      attributes: half, newton on
      pair build: half/bin/newton
      stencil: half/bin/3d/newton
      bin: standard
WARNING: Communication cutoff 5.12246152962189 is shorter than a bond length based estimate of 5.455. This may lead to errors. (src/comm.cpp:667)
Per MPI rank memory allocation (min/avg/max) = 1859.0 | 1859.0 | 1859.0 Mbytes
Step Temp Enthalpy c_1 
       0            0    10.816124    144.33728 
    1000    1.0579063    14.048423    142.08795 
    2000   0.99236899    15.003946    140.22014 
    3000    1.0605944    16.299369    138.70877 
    4000   0.99430584    16.673455    137.64207 
    5000   0.98588126    17.052593    136.35885 
    6000   0.97223922    17.947673    135.41904 
    7000   0.96747032    18.083493    134.40871 
    8000    1.0090282    18.784425    133.59943 
    9000   0.99639513    19.512986    132.82776 
   10000    1.0428602    19.798877    131.89448 
   11000    1.0302157    19.347024    131.09327 
   12000   0.98689738    18.705621    130.84381 
   13000   0.93376422    19.150594    130.44209 
   14000   0.96237798    20.081508    129.79381 
   15000    0.9365886    20.183146    128.88365 
   16000     1.024327    19.978551    128.24116 
   17000   0.97129371    20.050107    127.47347 
   18000   0.94862964    19.804998    126.76267 
   19000     1.046463    20.404258     126.1311 
   20000     0.984873    20.675018    125.86664 
   21000   0.97763081    21.276029    125.37642 
   22000    1.0519975    21.259348    125.06728 
   23000     1.083031     21.17772    124.49918 
   24000    0.9989534    20.891886    124.01453 
   25000    1.0399028    21.304526    123.73698 
   26000    1.0737009     21.86446    123.23571 
   27000    1.0196316    20.601451    122.86952 
   28000    1.0640457    21.247801    122.66293 
   29000   0.99020426    21.452797    122.26617 
   30000   0.98831545    21.325532     122.1414 
   31000   0.95498531    20.616046    121.93709 
   32000   0.97442721    21.094516    121.71426 
   33000   0.97001881    21.098343    121.53417 
   34000   0.96836132    21.036176    121.08782 
   35000    1.0281355    21.050178    120.68843 
   36000    1.0111811    21.249037     120.4414 
   37000   0.95898105    21.765567    120.21694 
   38000   0.99100334    20.883574    120.06622 
   39000    1.0567723    21.316307    119.90962 
   40000   0.95551363    20.861597    119.41691 
   41000   0.96550192    21.739942    119.31998 
   42000   0.98081129     21.43433    119.40473 
   43000    1.0032155    21.246589    118.96879 
   44000    1.0019956    21.118784    118.60149 
   45000    1.0428514    21.585499    118.18667 
   46000   0.98724613    21.528585     117.7926 
   47000    1.0344984    20.796529    117.43676 
   48000   0.98564048    21.045842    117.14534 
   49000    0.9826739    21.440842    117.43322 
   50000   0.94896848    21.919716    117.28437 
   51000   0.95850376    21.290156    116.98318 
   52000    1.0474573    21.409957    116.44455 
   53000   0.99568644    21.583242    116.21464 
   54000   0.94386702    21.856455    116.24138 
   55000     1.032055    21.563985    115.94818 
   56000   0.97507975    21.750722    115.65833 
   57000    1.0230117    21.506477    115.57136 
   58000    1.0156966    21.340431    115.33105 
   59000   0.99171989    21.826064    115.03259 
   60000    1.0180213    22.021809    114.71007 
   61000   0.95581139    21.174487    114.39942 
   62000    1.0198458     21.82835    114.37334 
   63000    1.0018576    21.844882    114.17373 
   64000    1.0096982    21.298514    113.76012 
   65000   0.98746872    22.229065    113.24067 
   66000   0.92344958    21.580708     113.1872 
   67000    1.0302176     21.52933     113.1573 
   68000    1.0344022     22.39114    112.79051 
   69000   0.97345711    21.158674    112.64028 
   70000    1.0525064    21.817662      112.256 
   71000    1.0616483    22.270824    111.97107 
   72000    1.0130563    21.873227    111.83363 
   73000   0.96822518    21.565229    111.66111 
   74000    1.0250175     21.12675    111.35203 
   75000   0.99895956    21.760374    111.19337 
   76000    1.0053015     21.78235    111.09846 
   77000   0.99382581    21.975049    110.96182 
   78000    1.0136394    22.081082    110.74239 
   79000    1.0215812    21.859123    110.23703 
   80000   0.97551706    22.271756    110.03198 
   81000    0.9563606    22.472706    110.16294 
   82000    1.0341795    21.581278    109.86796 
   83000   0.99829885     21.47719    109.54286 
   84000    1.0650637    21.859096    109.45142 
   85000    1.0254534     21.71342    109.14804 
   86000    1.0866015    22.409022    109.21071 
   87000   0.98791416    22.519637    109.07025 
   88000   0.96730686    21.923339    109.09087 
   89000   0.95230783    21.441697    109.04331 
   90000   0.99032184    21.866982    108.85264 
   91000    1.0006267    21.930228    108.44135 
   92000   0.98376819    22.230467    108.17913 
   93000   0.96373151    22.142214    107.73587 
   94000    1.0129437    21.555436    107.67493 
   95000     1.003197    21.869385    107.30564 
   96000   0.95323871    22.125532    106.67533 
   97000   0.99434795    21.728573    106.30745 
   98000    1.0150464    22.255475     105.9096 
   99000   0.97586281    21.690279    105.94055 
  100000    1.0350393    21.756213    105.97974 
  101000    1.0313549    22.881926    106.00032 
  102000   0.94591038    22.328568    105.56566 
  103000   0.97424293    21.551676    105.60056 
  104000    0.9935084    21.572996    105.53207 
  105000    1.0503319    22.591019    105.19392 
  106000     1.002692    21.861734    105.25949 
  107000    1.0281666    22.217708    105.29394 
  108000   0.99988462    22.391583    105.22527 
  109000    1.0769244    22.423223    105.04025 
  110000    1.0209954    22.543123    105.18768 
  111000   0.98294376    21.658422    105.05484 
  112000   0.94799459    21.123976    104.66043 
  113000   0.96351308    22.017787    104.50601 
  114000    1.0385162    22.227333    104.49162 
  115000    1.1005043    22.837012    104.20435 
  116000    1.0194813    22.085284    103.78597 
  117000    1.0544804    22.850053    103.04859 
  118000   0.96831754     22.47594    102.78364 
  119000   0.99451995    22.634851    102.38735 
  120000   0.98594841    21.742003    102.46277 
  121000    1.0061545    22.391513    102.41302 
  122000   0.99818242    21.604645    101.92181 
  123000   0.92514064    21.088666    101.97719 
  124000   0.96965013    21.049627    102.13575 
  125000    1.0559476    21.848129    101.92725 
  126000   0.96934217    21.887037    101.42829 
  127000    1.0039887    22.620908     101.2159 
  128000    1.0217915    22.509957    101.28874 
  129000   0.98332069     22.56831    101.09083 
  130000    1.0614132    22.465764    100.98855 
  131000     1.009139    22.694177     101.0486 
  132000   0.96765712    21.623791     101.0846 
  133000   0.98503196    21.655033    100.49044 
  134000   0.94237073    21.799344    100.42281 
  135000   0.97696015    23.020242     100.2208 
  136000   0.98896957     22.06427    100.49858 
  137000    0.9872928    22.395345    100.98841 
  138000    1.0574821    22.849303    100.95213 
  139000    1.0712775    22.742699    100.96286 
  140000   0.99246016    21.824433    100.89347 
  141000    1.0090919    22.517621    100.59121 
  142000    1.0447954    22.729846    100.75879 
  143000    1.0456092    21.913529    100.76842 
  144000   0.97712896    22.561428    100.30262 
  145000    1.0173908    21.846441     100.2901 
  146000    1.0004916    21.430892    100.26733 
  147000    1.0221618    21.320829    100.32584 
  148000   0.93691943    21.865395    100.06443 
  149000   0.96893122    22.465645    100.10442 
  150000    1.0192989    21.704694    100.53486 
  151000    1.0393762    22.035809    100.26705 
  152000   0.98813926    22.121476    100.39699 
  153000   0.97695755    23.096015     100.2606 
  154000   0.99490493    22.001453    100.16249 
  155000   0.98084401     22.14247    99.867904 
  156000    1.0125121    22.645203    100.00251 
  157000   0.98380118    21.931193    99.495428 
  158000   0.98128952    22.186009    99.410333 
  159000   0.99534727    22.147838    99.361299 
  160000    0.9733796    22.753972    99.455228 
  161000   0.99218715    22.806798    99.467145 
  162000   0.94096149    21.596443    99.307192 
  163000    1.0205049    22.482712    98.903698 
  164000    1.0223631      22.4386     98.85526 
  165000    1.0158281    21.990803    98.724269 
  166000    1.0201105    22.369982    98.386057 
  167000    1.0328943    22.055585    98.359324 
  168000   0.96514983    21.850092    98.407228 
  169000   0.95485542    21.693892    98.334615 
  170000    1.0317096    21.032495    98.094943 
  171000    0.9462997    22.940641    98.357408 
  172000    0.9474548    21.137514    97.983498 
  173000    1.0700966    22.418359     97.71287 
  174000   0.95881729     22.50027    97.777579 
  175000   0.94954375    21.450971     97.85893 
  176000   0.98499722      21.7949    98.154158 
  177000   0.97720169    22.570557    97.804236 
  178000   0.97133344    21.439342    97.956211 
  179000    1.0005523    22.985667    97.940462 
  180000    1.0499048    22.150305    97.496443 
  181000   0.94636524    22.799243    97.297854 
  182000    1.0577447      21.8279    97.160074 
  183000   0.97684601    22.151436    96.771858 
  184000    1.0118091    22.653986    96.625078 
  185000    0.9800662    21.899077    96.575408 
  186000    1.0102053    22.205487    96.811614 
  187000   0.97160028    22.288287    96.683176 
  188000    1.0037932     21.79153    96.562538 
  189000    1.0189501    22.346399    96.645779 
  190000    1.0396192     22.19839    96.485643 
  191000   0.92912373    22.044029    96.367416 
  192000   0.94152262    22.705666    96.214349 
  193000    1.1016176    22.455573    95.960421 
  194000    0.9996189    22.073555    96.025527 
  195000    1.0346746    22.675528    95.852578 
  196000    1.0038787    22.864413    95.618239 
  197000    1.0271446    21.842408    95.770325 
  198000   0.98225074    22.071975    95.716455 
  199000   0.92461494    21.773437    95.587109 
  200000   0.94894453    21.714737    95.573351 
  201000   0.98311278    22.719567    95.596261 
  202000    1.0073942     22.26306    95.605485 
  203000   0.98570032    22.075772    95.534796 
  204000   0.99080561    22.307682    95.484253 
  205000    1.0728238    22.029182    95.366249 
  206000    1.0253231    22.335194    95.432886 
  207000   0.95837014    22.421279    95.382463 
  208000   0.97565744    22.310679    95.136813 
  209000    1.0416435    22.606232    95.008925 
  210000   0.98540314    22.195128    94.620094 
  211000    0.9994639    22.182845    94.166772 
  212000   0.97773085    22.033649    94.371402 
  213000   0.93027451    22.839849    94.330647 
  214000    1.0262626    22.715918    94.347149 
  215000   0.99416228    21.949827    94.033159 
  216000    1.0015074    22.186924    94.030218 
  217000    1.0397323    22.733109    93.932581 
  218000    1.0108181    22.714038    94.033631 
  219000    1.0252343    23.680974    93.981972 
  220000    1.0569399    22.730079    93.727956 
  221000    1.0000186    22.650532    93.824313 
  222000    1.0039325    21.639827    93.855824 
  223000     1.003071    22.325643    94.288694 
  224000   0.97242314     22.29677    94.390555 
  225000   0.95273148    21.579809    94.542147 
  226000    1.0069196    22.350437    94.648108 
  227000   0.93433891    20.985607    94.621891 
  228000    1.0282623    22.062074    94.791978 
  229000    1.0153243    22.979918    94.810771 
  230000    1.0008925    22.231252     94.54835 
  231000    1.0313153    23.865245     94.81789 
  232000    1.0442563    22.488665    95.180735 
  233000   0.95649377    22.509322    95.030826 
  234000    1.0000694    22.302937    94.917316 
  235000    0.9346661    22.473809     94.42795 
  236000     1.005483    22.878715    94.272611 
  237000   0.99069538    22.462489     93.93648 
  238000    1.0496048    22.886713    93.601363 
  239000     1.015083     22.70981    93.366232 
  240000      1.00399    22.521868    93.275156 
  241000    1.0247197    22.985163     93.01854 
  242000    1.0083934    21.789664    93.147418 
  243000    1.0094285    23.193457    92.916984 
  244000   0.98335963    23.240612     92.92619 
  245000   0.98303171    21.932712    93.030895 
  246000    1.0070337    22.092198    92.932835 
  247000   0.99527148    22.220958    92.633896 
  248000    1.0261728    22.830773    92.431882 
  249000    1.0669599    22.636525    92.276936 
  250000     1.049828    22.432682    92.193125 
  251000    1.0660777    22.311366     92.33083 
  252000    1.0383319    22.334525    92.326012 
  253000     1.025536    22.347704    92.338533 
  254000   0.99811063    22.229967     92.11539 
  255000    1.0035884    22.095338    92.081674 
  256000   0.95982219    22.218854    92.314497 
  257000   0.98005619    22.220397    92.377403 
  258000    1.0110548    22.979703    92.534837 
  259000   0.98660987     22.60666    92.327504 
  260000    1.0561384     22.65511    92.128804 
  261000    1.0317503    22.304345    91.916501 
  262000    1.0544799    22.829099    92.224769 
  263000    1.0380083    21.758044     91.77934 
  264000   0.96264928    21.998983    91.631302 
  265000     1.014765    21.508635     91.53807 
  266000   0.94446289     21.50775    91.446798 
  267000    1.0005651    22.967003    91.326865 
  268000   0.98644014    21.942542    91.298799 
  269000    1.0962497    22.558339    91.446238 
  270000    0.9902648    21.849149    91.266576 
  271000    1.0093745    22.414093    91.161475 
  272000   0.94288144    21.927983    91.059614 
  273000    0.9713561    22.709452    91.021306 
  274000   0.97965157    21.412518    90.864644 
  275000    1.0549334     23.22307    91.021814 
  276000   0.99570976    23.100522     90.93792 
  277000   0.97764156    22.728807    90.835427 
  278000   0.98418869    21.733455    91.241495 
  279000    0.9851246    22.340978    91.496353 
  280000   0.94133012    21.463602    91.808737 
  281000   0.94369869    21.986555    91.673666 
  282000    1.0081716    21.997581    91.540334 
  283000    0.9758836    22.391177    91.330819 
  284000    1.0059443     22.41089    91.176336 
  285000    1.0830953    22.439325    91.322701 
  286000   0.97946934    22.988889     91.40948 
  287000     1.013441    22.614446    91.147232 
  288000    0.9927982    22.838762    91.110537 
  289000    1.0666289    22.789369    90.881911 
  290000    1.0155256    22.923942    90.968837 
  291000    1.0334144    22.645033    90.607861 
  292000   0.91455829    22.475069    90.810718 
  293000    1.0547363    21.807207    90.677168 
  294000    1.0370237    23.254803    90.708457 
  295000   0.99958718    21.918384    90.451135 
  296000    1.0408801    22.095871    90.081009 
  297000    1.0306228    23.196115    90.017143 
  298000   0.94941773    22.534301    89.841212 
  299000    1.0306225    22.255724    89.888912 
  300000    1.0544642    22.902619     89.91118 
  301000   0.97723574    21.512151    89.955792 
  302000    1.0076475    22.782642    90.073172 
  303000    0.9941206     22.66282     89.72469 
  304000   0.98350268      22.7417    89.488318 
  305000    1.0454354    22.375957    89.146475 
  306000   0.93287587    22.095947     89.26232 
  307000   0.99371462     21.89153    89.166746 
  308000    1.0121365    21.548977    88.906099 
  309000   0.97163778    22.240052    88.753422 
  310000    1.0126857     22.54242    88.398903 
  311000   0.99886424    21.691448    88.191887 
  312000    1.0270249     23.18603    88.037582 
  313000   0.95031743    22.210773    87.916382 
  314000   0.95437068    22.676597    88.004005 
  315000    1.0042867    22.704305    87.912481 
  316000    0.9875365     22.93188    87.481442 
  317000    1.0399651     22.69354     87.57087 
  318000     1.031202    21.762855    87.543081 
  319000   0.93882619    22.077323    87.543111 
  320000   0.91629272    21.915831    87.415213 
  321000    1.0354514     22.05113    87.554162 
  322000   0.99355129     22.77079    87.558373 
  323000   0.93456429    22.687388     87.42593 
  324000    1.0012871    22.331875    87.163423 
  325000    1.0072485    22.365607    86.840353 
  326000   0.98423853    22.017407    86.701618 
  327000   0.91718406    23.153645    86.379168 
  328000   0.99069047     21.50075     86.15158 
  329000   0.99226334    22.771995    86.089354 
  330000    0.9826012     22.13232    86.098599 
  331000    0.9955149    22.491243     85.84255 
  332000   0.99042456    21.634674    86.161505 
  333000    1.0525518    22.558893    86.280892 
  334000   0.96662989    23.041622    86.138851 
  335000    1.0364471    22.335021    86.155652 
  336000    1.1169584    23.049255    86.123837 
  337000    1.0219936    22.800433    85.999653 
  338000   0.98273228    22.101596     85.80479 
  339000    1.0853451     22.50907    86.167363 
  340000     1.010217    22.355232    86.340692 
  341000    1.0369407    22.900063    86.061254 
  342000    1.0130336    22.268217    85.851769 
  343000   0.99714834    22.193851    85.655296 
  344000    1.0028757    21.930644    85.758987 
  345000    1.0108327    21.506523    85.510753 
  346000    1.0389443    22.605348    85.307058 
  347000    1.0308757    22.077012    85.237799 
  348000   0.99946441    22.633458    85.377684 
  349000    1.0013624    22.248214     85.08603 
  350000    1.0145772     22.66635    85.085284 
  351000   0.96175029    22.529444    85.121147 
  352000   0.99921805    22.298154    85.067341 
  353000   0.96755258    22.443533    84.839366 
  354000    1.0713898    24.151798    84.911479 
  355000    1.0043123    22.389822    84.654951 
  356000   0.99665717    23.235065    84.668417 
  357000   0.99427038    21.671644    84.389198 
  358000   0.99768515    22.191964    84.637491 
  359000    1.0003502    22.295901    84.703336 
  360000    1.0294452    22.734215    84.616046 
  361000    1.0009097    22.875258     84.44353 
  362000    1.0142826    22.761505    84.293227 
  363000    1.0185929     22.81419    83.887481 
  364000    1.0011957    23.070652    83.816452 
  365000      1.07017    23.337253    83.535865 
  366000    1.0668621    22.012206    83.597723 
  367000   0.96996527    22.484713    83.940629 
  368000    1.0393525    22.371627    83.727025 
  369000   0.99234633    21.916524    83.497919 
  370000    1.0616921     22.74412    83.706626 
  371000    0.9332295    22.575898    83.898333 
  372000   0.99150513    22.529662    83.972805 
  373000   0.96768971    22.762128    84.049523 
  374000    1.0755095    22.375946    84.143048 
  375000    1.0286871    22.966096    84.145461 
  376000    1.0115015    22.609106    84.163334 
  377000    1.0084121    23.573228    83.967572 
  378000    1.0459703     22.80931    83.913462 
  379000   0.97498048    22.308814    83.550522 
  380000   0.96364801    21.601531    83.402284 
  381000   0.97815813    22.385447    83.361688 
  382000    1.0165936    22.679151    83.210471 
  383000   0.98700705     21.78913    83.078368 
  384000   0.95701717    21.709435     83.20615 
  385000    1.0338375    22.778945    83.117084 
  386000    1.0634132    22.686067    82.907679 
  387000    0.9902908    22.255908    82.596217 
  388000   0.99770825    21.994278    82.233982 
  389000    1.0149602    22.651636    82.309337 
  390000    1.0487505     21.83436    82.346766 
  391000    1.0150277    21.664718    82.381752 
  392000    1.0374222    21.717004    82.788824 
  393000   0.94532709    21.607492    82.578401 
  394000   0.98189124    22.662415    82.508358 
  395000    1.0496799      23.2351    82.657465 
  396000    1.0197276    22.095442    82.643522 
  397000    1.0241192     22.39848    82.627474 
  398000    1.0436037    22.084791    82.806273 
  399000   0.95291437    21.777063    83.142084 
  400000    1.0567438    22.404557    83.203889 
  401000    1.0065352    22.339009    83.486231 
  402000     1.014259    22.632267    83.103111 
  403000    0.9783411    22.145961    82.905641 
  404000   0.99377071    22.119083    82.946603 
  405000   0.99664543    23.017557    82.735363 
  406000    1.0416958    23.603922     82.61919 
  407000   0.98440567    22.681275    82.762508 
  408000    1.0353412    22.772043    83.266262 
  409000   0.94741022    22.032984    83.519603 
  410000     1.048398    23.039647    83.301814 
  411000    0.9430678    22.626491     83.31944 
  412000    1.0094406     22.05484    83.020079 
  413000    0.9774018    22.542137    83.045085 
  414000   0.99878686    22.930924    82.789348 
  415000   0.96115264    22.495175    82.577418 
  416000    1.0058998    22.402062    82.372119 
  417000   0.98523632    22.712788    82.397794 
  418000   0.99000606    22.250244    82.476789 
  419000    1.0000089    22.816815     82.34358 
  420000    1.0114844    22.815473    82.194839 
  421000    1.0094934    21.785317    81.751258 
  422000    1.0086543    22.361912    81.445508 
  423000   0.96833466    22.397655    81.506321 
  424000    1.0059364    22.564478     81.47431 
  425000    1.0246913    21.766063    81.539505 
  426000   0.99180711    22.807951    81.488571 
  427000     1.001821     22.50735    81.508101 
  428000   0.99080321    21.969553    81.505342 
  429000    1.0027339    23.370018    81.365321 
  430000    1.0188037    22.832642    81.526832 
  431000   0.99871695     22.73106    81.425384 
  432000    1.0111448    22.634316    81.259619 
  433000   0.99421336    22.919653    81.363832 
  434000   0.97106895    22.447168    81.308476 
  435000    1.0195469    22.111047    81.488999 
  436000   0.97912457    22.612736     81.42599 
  437000   0.95942967    23.229205    81.711613 
  438000     1.059784    22.016511    81.630465 
  439000    1.0111221    22.824458    81.669117 
  440000    1.0466777    22.680755    81.486091 
  441000    1.0548215    22.189291    81.092886 
  442000   0.98304653    22.453644    80.826016 
  443000   0.98307742    22.646726    80.935096 
  444000    1.0283527    23.289276    80.916007 
  445000    1.0423152    22.965523    80.870167 
  446000   0.94245135    21.732172    81.240979 
  447000    0.9968615    22.981502    81.545675 
  448000    0.9484144    22.577772    81.662177 
  449000   0.99211005    22.320902    81.448779 
  450000    1.0090719    21.984147    81.071356 
  451000    1.0205343    22.979753    81.033745 
  452000   0.96844724     22.83301    80.961385 
  453000   0.97864083    22.709977     80.91893 
  454000   0.95902583    22.131679    81.052843 
  455000    1.0146827    22.612059    81.298484 
  456000    1.0071834    22.841492    81.239946 
  457000    1.0262056    22.588023     80.99732 
  458000    1.0185897    22.482236    80.960127 
  459000    1.0048049    21.931291    80.791264 
  460000    1.0074536    22.359778    80.824671 
  461000   0.96902176    23.127493    80.961799 
  462000   0.92655052    22.418445    80.884069 
  463000   0.95802811    23.002499    80.858882 
  464000   0.97292147    23.609462    81.152433 
  465000   0.98381778    21.919106    81.077843 
  466000   0.98223786    22.247373    81.169096 
  467000     1.043445    22.600017    80.877112 
  468000    1.0302775    22.717315    80.739148 
  469000    1.0051083    22.765802    80.363771 
  470000    1.0765936     23.00795    80.204437 
  471000   0.97023218    22.740281    79.990416 
  472000    1.0282378    22.815364     80.01993 
  473000    1.0050703    22.802026    79.958802 
  474000   0.98907897    22.392241    80.154707 
  475000   0.95810815    22.556446    80.209652 
  476000   0.97375069    23.044287     80.43391 
  477000   0.96311214    22.021348    80.425072 
  478000   0.91523237    22.165729    80.666837 
  479000   0.99151373    22.234353    80.605826 
  480000   0.92667189     22.18283    80.505606 
  481000   0.98089622    23.465408    80.429127 
  482000    1.0504659    22.741167    80.088739 
  483000    1.0701631    23.050521     79.84573 
  484000    1.0005396    22.227001     79.29124 
  485000   0.99779509    22.676436    79.367126 
  486000   0.96712351    22.032336    79.544734 
  487000     1.073199    22.332889    79.208815 
  488000    1.0253106     22.12868    78.936821 
  489000    1.0242028    23.478937    78.572702 
  490000   0.97385596    23.106187    77.916503 
  491000   0.97736589    22.259793    78.000882 
  492000    1.0462167    23.306587     77.77278 
  493000    1.0255404    22.383695    77.653718 
  494000   0.98992608    22.397531    77.447472 
  495000    1.0416975     22.61424    76.999168 
  496000    1.0006382    22.692425    77.173397 
  497000    1.0218394    23.139447    76.884936 
  498000    1.0267687    22.153923     76.54499 
  499000    1.0948806    23.027024    76.209413 
  500000   0.98914282    22.889496    76.452502 
  501000    1.0419935    22.763279    76.372934 
  502000    1.0173976    22.194685    76.531721 
  503000    0.9927144    23.251196    76.542969 
  504000    1.0183076    22.482088    76.033348 
  505000   0.98777096     22.83027    76.157503 
  506000   0.99489872     22.83112    76.404532 
  507000   0.96368278     21.42681    76.415951 
  508000   0.98095046    22.468255    76.307476 
  509000   0.96871365     22.78394    76.221468 
  510000   0.92936377    22.617277    76.229159 
  511000    1.0715789    23.323151    76.432134 
  512000   0.98160073    22.053269    76.206203 
  513000    1.0137544    22.294002    76.102174 
  514000   0.92490763    22.381413    76.204676 
  515000   0.94614458    22.288319    76.083432 
  516000    1.0444258     22.61315     75.96631 
  517000   0.98100197    22.468262    75.893029 
  518000   0.94373762    22.372803    75.967277 
  519000     1.034155    23.437506    75.745463 
  520000    1.0198353    21.466838    75.742942 
  521000    1.0212667    22.273214    75.899092 
  522000   0.97993823    22.858362    76.074201 
  523000   0.93688832    22.344273    76.049875 
  524000   0.99425687    22.669925    76.220957 
  525000    1.0050219      22.1958    76.399274 
  526000   0.99420802     21.87679    76.291261 
  527000   0.99091328     22.48277    76.037766 
  528000    1.0001018    22.954565    75.935255 
  529000   0.98543052     22.39885    75.734736 
  530000    1.0159134    22.235766     75.62834 
  531000     1.053623    22.507234    75.508691 
  532000    1.0586185    22.573755    75.567692 
  533000   0.97190043    22.210041    75.670689 
  534000    1.0596137    22.945969    76.122823 
  535000    1.0032254    22.384203    76.233239 
  536000   0.98883059    22.751938    76.468787 
  537000   0.99528216    22.281747    76.839357 
  538000   0.96779815    22.816345     76.59998 
  539000    1.0284935    22.231109    76.750392 
  540000    1.0925278    23.029255    76.769563 
  541000   0.98488353    23.093476    76.869612 
  542000   0.97202365     23.38435    77.105059 
  543000   0.91350097    22.023298    76.993198 
  544000    1.0275121    22.767376    76.796391 
  545000   0.98586365    22.392502    76.390312 
  546000    1.0446397     21.61773    76.250239 
  547000   0.98538309     22.53864    76.373199 
  548000   0.97755433    22.240527    76.547729 
  549000    1.0228314    22.334376    76.525685 
  550000    1.1165435    23.453497    76.395139 
  551000   0.99145794    22.355592    76.291965 
  552000    0.9826834     22.26826    76.281049 
  553000   0.98677718    22.264619    76.059397 
  554000   0.92121909    22.217562    75.740847 
  555000    1.0354848    22.115153    75.391673 
  556000    1.0349633    23.789321     75.57144 
  557000   0.93963017    23.150269    75.590508 
  558000   0.92239965    21.672255     75.28331 
  559000   0.98741459    21.853492    75.510911 
  560000    1.0322948    22.055993    75.653894 
  561000    1.0114033    22.371746    75.933807 
  562000   0.94807041    21.787403    76.092021 
  563000    1.0578708    22.793287    75.962094 
  564000   0.98569385    23.076709    75.946492 
  565000    1.0607191    23.089959    76.039241 
  566000   0.98827219    22.020212    75.841986 
  567000   0.99600771    23.240965    75.855076 
  568000    1.0341747    22.090533    75.983821 
  569000   0.96145987    22.318277    76.020287 
  570000   0.95764983    21.897992    76.266951 
  571000   0.98240424    22.431282    76.064183 
  572000   0.98534217    22.107407    75.876601 
  573000   0.96227106    22.709225    75.960876 
  574000    1.0217274    22.419665    75.947444 
  575000   0.96900001    22.496366    75.671876 
  576000   0.98505094    22.471448    75.607338 
  577000   0.99758642    23.116937    75.460265 
  578000    1.0312048    22.682339    75.295499 
  579000   0.97964891    23.172186    75.342328 
  580000   0.97270608    22.253968     75.03471 
  581000    1.0144708    22.420463    75.047792 
  582000    1.0022813     22.86494    74.988725 
  583000    1.0185503    23.127601    74.991757 
  584000    1.0091434    22.468758    74.844307 
  585000   0.99429898    21.864718    75.026332 
  586000    0.9666719    22.555433    75.094627 
  587000    1.0110875    23.078875     75.09204 
  588000   0.98710027     22.43452     75.02751 
  589000   0.99033495    22.911638    74.455569 
  590000    0.9745194    22.453146    74.633303 
  591000   0.95751165    21.966621    74.395451 
  592000    1.0182322    22.040856     74.55552 
  593000    1.0168609    22.785814    74.456044 
  594000    1.0022634    22.625358    74.401198 
  595000    1.0218899    23.188836    74.109813 
  596000   0.99975402    22.808142    74.267078 
  597000    1.0165696     22.54072    74.686266 
  598000    1.0177738    22.993753    74.371253 
  599000   0.90173667     22.31601    74.333792 
  600000    1.0022881    22.877126    74.239785 
  601000    1.0563194     22.19801    74.085638 
  602000   0.99725955    23.305612    74.094179 
  603000    1.0072795    22.103692    73.963558 
  604000   0.96082993    22.705951    74.104302 
  605000   0.97185066    22.497217    74.231178 
  606000    0.9836717    22.855574    73.944969 
  607000    1.0415052    22.607564    73.649793 
  608000   0.91489569    22.364162    73.464105 
  609000   0.99679017    22.291702    73.548123 
  610000    1.0028762    22.649546    73.607406 
  611000   0.98315846    23.059397    73.745834 
  612000    1.0189558     22.36743    73.642218 
  613000   0.97477745    22.469245    73.706304 
  614000   0.90671495    22.072586    73.664659 
  615000   0.95856045    22.375242    73.369939 
  616000    0.9806576    22.224999    73.689872 
  617000    1.0978228    23.739964    73.727265 
  618000    1.0378252    22.266712    73.303166 
  619000   0.99905562    23.527277    73.168484 
  620000   0.99409612    22.091689    73.061547 
  621000   0.96083755    22.070103    72.914652 
  622000    1.0348494    22.694308    72.624786 
  623000    1.0314836    22.505862    72.545684 
  624000      1.05025    22.430645    72.406727 
  625000   0.92769758    21.273557    72.424206 
  626000   0.93748508    22.051101    72.276209 
  627000   0.95958631    22.613363    72.113195 
  628000   0.98475545     22.88314     72.25405 
  629000    1.0367958    21.701792     72.05358 
  630000   0.98651776    23.484489    71.930092 
  631000    1.0702607    22.767956    71.901894 
  632000    1.0539961     22.49654      71.8888 
  633000    1.0204919    22.740544    71.695227 
  634000   0.98423967    23.026604    71.931883 
  635000   0.95335872    23.025453    72.016626 
  636000   0.97685225    22.364013    72.162069 
  637000    1.0050774    22.575476    72.257001 
  638000   0.95963493    22.127747    72.366585 
  639000   0.99512542    22.107586     72.31738 
  640000    1.0443236    21.880686    72.331355 
  641000   0.97770412    22.317169    72.112786 
  642000   0.99367139    22.700126    72.069795 
  643000    1.0494319    23.174501     72.06694 
  644000   0.97954789    22.750254    72.208847 
  645000   0.97217935    22.302369    72.211776 
  646000    1.0215663    22.526397    72.087572 
  647000     0.995681     22.29707    72.216875 
  648000    1.0639905    22.788213    72.252317 
  649000   0.97749606     23.30032    72.261955 
  650000    1.0389246    22.976416    72.096794 
  651000    1.0068093    22.626318    72.318178 
  652000   0.98794363    21.841326    72.396121 
  653000   0.95821652    22.147498    72.560078 
  654000   0.99509987    23.274712    72.508656 
  655000     1.017314    22.521677    72.331061 
  656000    0.9982075     21.49082    72.184432 
  657000    1.0082724    22.458149    72.215955 
  658000   0.97203771    22.237214    72.200851 
  659000    1.0195889    22.377543    72.019682 
  660000    0.9826331    22.258871    71.726633 
  661000   0.97060833    22.159546    71.803572 
  662000    1.0547829    22.672592    71.618571 
  663000    1.0706874    22.540599    71.492964 
  664000   0.97508004    22.105106    71.549315 
  665000      1.06967    22.826411    71.903334 
  666000    1.0750726    22.942916     71.74999 
  667000    1.0491851    22.110811    71.650337 
  668000   0.99121295    22.674778    71.888071 
  669000    1.0362299    22.477394       71.884 
  670000   0.95987455    22.540681    71.570548 
  671000   0.99741183    22.492248    71.495846 
  672000   0.95506651    22.140487    71.179857 
  673000   0.98506331    22.725198    71.253209 
  674000    1.0271269     22.40495    70.574622 
  675000    1.0741494    22.685366    70.296135 
  676000   0.98300646     22.53137    70.493548 
  677000    1.0351661    22.730141    70.517703 
  678000    0.9723091    22.198271    70.370557 
  679000    1.0228275    22.696348     70.37013 
  680000   0.97559494    22.044731    70.191497 
  681000    1.0850465    22.971482     70.37011 
  682000    1.0027175    22.366353    70.240374 
  683000    1.0346823    23.157187    70.284929 
  684000   0.98230554    22.767849    70.142685 
  685000    1.0026563    23.073525    70.222371 
  686000   0.99870048    22.583264    70.312904 
  687000    0.9568924    22.644953    70.168734 
  688000    1.0061958    22.822776     69.85473 
  689000   0.96061733    22.733464    70.279212 
  690000   0.96560688    22.201003    70.227113 
  691000   0.94348824    21.432703    70.428724 
  692000   0.97769274    22.459668    70.383869 
  693000   0.97390548    22.188744    70.353548 
  694000    1.0359027    23.386493    70.262393 
  695000   0.94626408    22.195684     70.19921 
  696000    1.0334479     22.99204    70.271319 
  697000   0.98742088    22.504989    70.146859 
  698000    1.0213188    23.026624    70.185428 
  699000   0.97599754    23.085403    70.436644 
  700000   0.97562562    22.422435    70.541392 
  701000   0.98853967    21.898544    70.639218 
  702000   0.99588528    21.549639    70.656804 
  703000    0.9762034    22.301057    70.663339 
  704000   0.94564466    22.002987    70.623741 
  705000    1.0287088    22.502683    70.574177 
  706000    1.0311977     23.15982    70.476811 
  707000    0.9788841     22.44697    70.350495 
  708000   0.97068164    22.902804    70.408171 
  709000    1.0257622     22.53401    70.172908 
  710000   0.95364005    21.799145    70.131143 
  711000   0.97355797    21.997338    70.153491 
  712000    1.0200089     22.47189    70.427631 
  713000     1.063127    22.871508    70.192625 
  714000   0.99044598    23.038865    70.250787 
  715000    1.0257659    22.461915    70.164926 
  716000    1.0755557    22.430683    69.791663 
  717000    1.0280001    21.430299    69.771495 
  718000    1.0787004     23.03477    69.737785 
  719000   0.92541014    22.569692    69.670153 
  720000    0.9869324    22.651184     69.47703 
  721000   0.94893675    21.940159    70.040102 
  722000   0.94973559    22.330408    69.695977 
  723000     1.042471    23.066392    69.583172 
  724000    1.0082321    22.395657    69.541646 
  725000    1.0340103    22.355004    69.233712 
  726000     1.060066    23.098483     69.29217 
  727000   0.95901216    22.177964     69.04186 
  728000   0.97965546    22.800042     69.08909 
  729000    1.0024641    22.694632    69.195138 
  730000    1.0124197     23.02146    69.541165 
  731000    1.0354179    22.224405    69.515856 
  732000   0.99832195    22.653157    69.487677 
  733000    1.0510438    22.516502    69.360551 
  734000    1.0249408    23.385765    69.146362 
  735000    1.0433694    22.535787     68.96979 
  736000   0.95512672    22.714151    68.823526 
  737000   0.90381687    22.476785    68.465507 
  738000    1.0042115    22.652502    68.488631 
  739000     1.051057    22.738082    68.260638 
  740000   0.96038922    22.631809    68.346826 
  741000   0.95951359    22.242331    67.955979 
  742000   0.98988973    21.694997    67.519126 
  743000   0.98129522    22.411113    67.305882 
  744000    1.0437197     22.84704    66.965945 
  745000   0.99110703    22.701848    66.678685 
  746000   0.93190222    22.362047    66.328428 
  747000   0.97548113      22.0642    66.380983 
  748000   0.99483549    22.602391    66.193084 
  749000   0.94332387    22.338346    65.928601 
  750000    0.9778916    22.537928     65.62729 
  751000     0.994683    22.487397     65.62018 
  752000   0.98123576    22.072159    65.626603 
  753000   0.98672816     21.99909    65.485262 
  754000   0.95894433    23.136133    65.568241 
  755000    1.0137343    22.348552    65.483914 
  756000    1.0325661    22.094953    65.587479 
  757000   0.99831916    23.155881    65.548873 
  758000    1.0460294    23.293755    65.492373 
  759000    1.0717729    22.432896    65.628012 
  760000   0.97349089    22.437326    65.020722 
  761000   0.97282122    22.898551    64.726488 
  762000    1.0258993    21.684512    64.866334 
  763000    1.0228527    21.972612    65.071995 
  764000   0.97298564    21.960008    64.809639 
  765000   0.96626267    22.635358    64.775134 
  766000    1.0362416    22.249015    64.844908 
  767000   0.99867403    23.165977    65.135877 
  768000    1.0260861    22.323941    64.876812 
  769000      1.02778     21.85522    64.826535 
  770000   0.97816432    22.107064    64.995559 
  771000   0.95849441    22.805385    65.055262 
  772000     1.028823     21.70083    64.920222 
  773000   0.99157235    23.309936    65.084193 
  774000   0.95834926     22.47712    65.229576 
  775000    1.0339356    22.713337    65.091826 
  776000    1.0271557    21.957799    65.231931 
  777000    1.0543715    23.039413     64.94748 
  778000    1.0328594    22.841437    64.842288 
  779000   0.99551678    22.602311    64.752256 
  780000   0.97326874     22.23866    64.752043 
  781000   0.98918907    22.894398    64.682903 
  782000   0.99647491    21.624997    64.397072 
  783000    0.9514984    22.555459    64.633178 
  784000   0.98402847    23.073188    64.645643 
  785000   0.95995182    22.187451    64.503285 
  786000    1.0085334    22.046544    64.430351 
  787000   0.99119672    23.685237    64.616307 
  788000   0.98830767    22.554454    64.850627 
  789000     1.029383    23.545253    64.982199 
  790000   0.94275509    22.858254    65.154433 
  791000    0.9693329    22.200794    65.050057 
  792000    1.0264829    23.459506    64.916782 
  793000    1.0597089    22.371982    64.898649 
  794000    1.0283945    22.088912    64.890259 
  795000   0.97221989    22.535765    65.179698 
  796000   0.96910113    23.123284    65.303606 
  797000   0.96019919    22.483915    65.220134 
  798000   0.96738059    23.325662    64.987597 
  799000   0.97249675    22.707019    65.000959 
  800000    1.0404741    22.690509    65.070116 
  801000    1.0391105    22.471328    64.946484 
  802000    1.0004163    23.136271    64.619278 
  803000   0.98845385    22.695708    64.559868 
  804000    1.0028056    22.641603    64.424265 
  805000    1.0421884    21.645131    64.429505 
  806000    1.0046234    21.816678     64.52031 
  807000   0.98047293    23.405557    64.801028 
  808000   0.95528504    22.947367     64.95756 
  809000   0.96421013    22.621526    64.853707 
  810000   0.98744576    22.914784    64.897125 
  811000    1.0251834    22.810361    64.661103 
  812000    1.0131335    23.430299    64.837467 
  813000   0.98491083    22.997757    64.716257 
  814000   0.98158561    22.309232    64.576828 
  815000   0.94195304    23.323482    64.310289 
  816000    1.0656593    22.656087    64.449227 
  817000   0.95836446    22.481653    64.610331 
  818000   0.98381971    22.200394    64.407123 
  819000    1.0347255    23.340448    64.515684 
  820000     1.005039    21.675868    64.475114 
  821000    1.0768067     22.61212    64.703582 
  822000   0.96878821    22.665378    64.732223 
  823000   0.97792526    22.468093    64.944234 
  824000   0.95901023    23.047872    64.936495 
  825000   0.96660918    22.713542    65.096159 
  826000   0.94496472    22.927644     64.80358 
  827000   0.97656298     22.59137    64.495714 
  828000    1.0198366    21.991579    64.508007 
  829000    1.0159785    23.983714    64.348876 
  830000    0.9894432     22.30304    64.090889 
  831000    1.0395633    22.619603     64.30386 
  832000    1.0384735    23.486488    63.967536 
  833000      1.02498    22.629315     64.48069 
  834000    1.0099232    23.527753    64.712685 
  835000    1.0070928    22.448708    64.650992 
  836000    1.0018384    22.442988    64.460162 
  837000    1.0005057    22.730557    64.312631 
  838000    1.0611732    23.549662    63.979928 
  839000   0.99224802    22.668117    63.970615 
  840000    1.0727765    22.574318    63.874484 
  841000   0.98451593     21.65362    63.538237 
  842000    1.0146334    23.544855    63.746965 
  843000    1.0093011    22.450008    63.456241 
  844000   0.96543659    22.327521    63.469462 
  845000    1.1161685    22.979112    63.536685 
  846000    0.9149233    21.870359    63.656465 
  847000    1.0156036    22.389906    63.873111 
  848000    1.0458871    23.235163      63.9795 
  849000    0.9834852    22.523762    64.310025 
  850000    1.0627709    21.954625    64.251593 
  851000   0.97709343    22.058114    64.245521 
  852000    1.0468705     22.59922    63.964965 
  853000    1.0074895    22.837118    64.111727 
  854000   0.99009204     23.10214    64.215403 
  855000   0.93159808    22.375944    64.094468 
  856000   0.97186291    22.755638    64.213861 
  857000   0.98544298     23.79513    64.038002 
  858000    1.0534799    22.154027    63.995586 
  859000   0.98717265    22.274335    63.854196 
  860000   0.98267274    22.445072    63.644333 
  861000   0.98966215      21.9511     63.36251 
  862000   0.97537401     22.03635    63.555014 
  863000    1.0405537    22.390677    63.635883 
  864000   0.99627889    22.369188     63.69525 
  865000   0.91674273    22.127138    63.777014 
  866000   0.97864487     23.51114    63.701359 
  867000    1.0308926    22.718347    63.334265 
  868000    1.0234281    21.686611    63.380379 
  869000   0.98995791    22.552607    63.233081 
  870000    0.9576193    22.708602    63.251668 
  871000   0.92895496    22.303838    63.130461 
  872000   0.98979709    22.358577    63.014243 
  873000    1.0575388    22.531146    63.274624 
  874000   0.98650804    22.374255    63.319842 
  875000   0.97850182    22.606488    63.241412 
  876000    1.0027563     22.42888    63.193181 
  877000   0.95742552     22.16248      63.2809 
  878000    1.0491691    22.903805    63.495755 
  879000    1.0892967    22.380422    63.652563 
  880000    0.9598278    23.447312    63.608912 
  881000    1.0968032      23.4036    63.503706 
  882000   0.98818356    22.936967    63.461601 
  883000   0.94014945    22.315775    63.451457 
  884000   0.99314473    22.002246    63.524111 
  885000    0.9569921    22.323291    63.281546 
  886000    1.0355975    22.750395    62.982707 
  887000    1.0817563    23.979553    62.876439 
  888000   0.97820612     22.29487    62.693769 
  889000    1.0349248    22.576205    62.926714 
  890000   0.97023947     23.13858    62.853882 
  891000    1.0478293    22.566555    62.796815 
  892000    1.0023592    22.020383    62.809371 
  893000    1.0070621    22.325143    62.545325 
  894000   0.98107686    22.540459    62.427759 
  895000   0.97368149    22.495749    62.092758 
  896000    1.0158843    23.442086    62.126127 
  897000    1.0421567    24.048281    61.813977 
  898000    1.0347639    22.346863    61.633598 
  899000   0.93200867    22.521259    61.347821 
  900000    1.0298132     23.14398    61.254425 
  901000    1.1039365    22.758706    61.080368 
  902000    1.0297234    23.187569    61.282735 
  903000   0.99013864    22.920897    60.958047 
  904000   0.96399375    23.052528     61.31729 
  905000   0.98570623    22.725035     61.32937 
  906000   0.97404914    22.616913    61.228612 
  907000    1.0130957    23.028167    61.513833 
  908000    1.0576973    22.371168    61.541287 
  909000    1.0118469    22.302123    61.848319 
  910000    1.0078409    22.140236    61.798506 
  911000   0.99810864    22.286102    61.484923 
  912000   0.96372714    22.175311    61.760175 
  913000   0.99492871    21.620553    61.883849 
  914000   0.92928602     22.47357    61.570332 
  915000   0.97079452     22.75487    61.472557 
  916000   0.99479478    23.445653    61.429972 
  917000   0.94934666    22.907371    61.410171 
  918000   0.97792115     22.47077    61.226291 
  919000    1.0307045    23.483221    60.714893 
  920000    1.0202734    22.302274    60.481932 
  921000    1.0119133    22.435073    60.504972 
  922000   0.98973752    23.156594     60.71491 
  923000   0.98703017    22.893022    60.637889 
  924000   0.99801598    22.761267    60.832561 
  925000   0.95923725    22.612268    60.644156 
  926000   0.99191744    22.517863      60.7367 
  927000   0.97061347    22.290494    60.774959 
  928000   0.95753989    23.190541    60.771228 
  929000    1.0154583    22.420306    60.717696 
  930000   0.97265427    21.916878    60.613843 
  931000    1.0314982    23.545718    60.784884 
  932000   0.96849108    22.013638    60.719017 
  933000    1.0862223    23.045872      60.7516 
  934000    1.0212535    22.385705    60.713306 
  935000    1.1029623    22.823723    60.995755 
  936000   0.94047167     22.34388    61.149792 
  937000    1.0250859     22.45865    61.196751 
  938000    1.0238245    23.133722    61.171683 
  939000   0.99714622    23.457608     61.34714 
  940000    0.9506123    22.510611    61.098699 
  941000   0.93303726    21.589835    60.969555 
  942000     1.035693    23.337585    60.890192 
  943000    1.0045348    22.252665    60.625624 
  944000    1.0039545    22.297534     60.87744 
  945000   0.93215978    22.269861    60.907048 
  946000   0.90700035    22.176727    60.753596 
  947000    1.0644573    22.789311    60.742706 
  948000   0.97338469    22.891155    60.921319 
  949000   0.98833689    23.071457    61.217559 
  950000    1.0417932    22.421193    61.180083 
  951000    1.0308089    23.139756     61.03792 
  952000    1.0210225    23.431862    60.854637 
  953000    1.0003568    22.853357    61.123251 
  954000    1.0470002    22.432716    60.817806 
  955000    1.0266939    22.388806    60.879935 
  956000   0.96498628    22.308734    60.983985 
  957000   0.98922315    21.915497     60.62797 
  958000   0.99366932     22.14445    60.651304 
  959000    1.0843199     22.99306    60.296938 
  960000     0.970228    22.471478    60.586218 
  961000   0.97948738    22.385861    60.450753 
  962000   0.94291953    21.774927    60.267913 
  963000    1.0369446    23.058044    59.811606 
  964000     1.000079    23.499641    59.477702 
  965000     1.031359    23.483149    59.574443 
  966000    1.0066575    22.158934    59.466925 
  967000    1.0004697    22.573941    59.345278 
  968000    1.0624272    22.797682    59.458436 
  969000    0.9762637    22.785811    59.398147 
  970000   0.96789754    22.850965    59.106178 
  971000   0.93926915     22.99843    59.105676 
  972000   0.98236194    22.663643    59.204744 
  973000    1.0088455    23.022995    59.396141 
  974000    1.0614592    22.496835    59.428699 
  975000   0.94948115     22.55822     59.76131 
  976000   0.99795386    22.256248    59.899888 
  977000    0.9695814    22.766662    60.299191 
  978000    1.0739388     22.36233     60.29822 
  979000    1.0383648    22.400056    60.173314 
  980000    1.0273077    22.660757    60.072235 
  981000   0.98974885    22.339834    59.874733 
  982000   0.99390741    21.972632      60.0911 
  983000   0.99242411    23.361671    60.085168 
  984000    1.0403647     22.95194    60.082677 
  985000   0.96985248    23.064283    59.907983 
  986000   0.96833583    22.609905    59.786536 
  987000   0.95394885     22.68419    59.578116 
  988000   0.95183607    22.330161    59.507741 
  989000   0.93117124    22.636425    59.263306 
  990000   0.99749747     22.72152    59.176294 
  991000    1.0842204    23.101519    58.964299 
  992000   0.96421392    22.514951    59.114844 
  993000    1.0418998    23.052603    59.479504 
  994000   0.99809777    22.111486    59.470376 
  995000     1.061225    23.324484    60.036047 
  996000    1.0049841    22.364371    59.959004 
  997000    1.0172483     22.46552     59.92875 
  998000   0.98599761    22.698915    59.813115 
  999000    1.0480799    22.339581    59.654154 
 1000000    1.0150534    22.829922     59.36953 
 1001000     1.019608    22.294867    59.187192 
 1002000   0.97052152    22.522217    59.014233 
 1003000    1.0110928    21.882227    58.785505 
 1004000    1.0172269    23.161159    58.672488 
 1005000   0.98935386    21.909332    58.636462 
 1006000    1.0771085    22.925016    58.227759 
 1007000    1.0125023    23.403916    58.320972 
 1008000    1.0364789    22.175837    58.691833 
 1009000    1.0452956     23.62391    58.755817 
 1010000    1.0309212    22.706695    58.861508 
 1011000    1.0364842    22.170022    58.761709 
 1012000    1.0053545    21.811038    58.547557 
 1013000    1.0186248    22.189449    58.309821 
 1014000   0.98677719    22.867996     58.08341 
 1015000     1.000577    22.568251    58.255579 
 1016000    1.0281095    23.077035    58.280524 
 1017000   0.98655688    22.830778    58.001062 
 1018000   0.99703297    22.952016    57.599181 
 1019000    1.0406006    22.757603    57.455106 
 1020000   0.94635357    22.228033    57.448464 
 1021000     1.016266    21.326644    57.357588 
 1022000    1.0377047    22.383393     57.01871 
 1023000     0.978315    22.298586    57.112059 
 1024000    1.0354856    23.073969    57.059364 
 1025000   0.98521059    22.579309    57.006097 
 1026000    1.0298742    22.588265    57.105209 
 1027000    1.0173047    23.131912    57.272913 
 1028000    1.0652111    23.285456    57.120686 
 1029000   0.93236833    22.598436    57.158801 
 1030000   0.99122275     23.56658    57.256084 
 1031000    1.0346906    23.382336    57.043373 
 1032000   0.97421187    22.388642    57.316924 
 1033000      1.03913    23.167422     57.64496 
 1034000   0.98601056    23.302339    57.254141 
 1035000   0.99636367    22.706873    57.074753 
 1036000   0.99993364    23.260071    57.211462 
 1037000   0.93695313    23.352557     57.19567 
 1038000    1.0437486    22.289638     57.43848 
 1039000   0.94536345    21.847346    57.601341 
 1040000    1.0186431    23.766671    57.840634 
 1041000   0.99824027    22.487617    57.991692 
 1042000   0.94004818    23.314686     57.93325 
 1043000   0.96997042    22.899365    57.777582 
 1044000   0.96780448    21.758686    57.676543 
 1045000   0.99473403    22.822528    57.320464 
 1046000    1.0744975    23.288084    57.364239 
 1047000   0.99165129    23.164856    57.530684 
 1048000    1.0239898    23.152759    57.668107 
 1049000    1.0264278    22.913392    57.758282 
 1050000    1.0517304    22.575438    57.967519 
 1051000   0.96535233     22.43842    58.103777 
 1052000   0.93533552    22.861888    58.210892 
 1053000   0.99325613    22.931373    58.195451 
 1054000   0.99667365    22.857807    58.097554 
 1055000   0.98255244    22.547786    58.008716 
 1056000   0.99243219    22.780128    57.889685 
 1057000    1.0089707    22.587715    57.776247 
 1058000   0.99789591    22.791801    57.703018 
 1059000   0.97407296    23.255693    57.631247 
 1060000    1.0431428    22.765629    57.778606 
 1061000   0.98521051    22.680823    57.961615 
 1062000    1.0370578    23.523304    57.606224 
 1063000   0.95607992    22.771469    57.364276 
 1064000   0.99051806    22.750033    57.509097 
 1065000   0.99429249    21.788515    57.513593 
 1066000   0.92123018    22.136021    57.654156 
 1067000   0.94360527    23.688984    58.020882 
 1068000   0.96319411    22.909951    57.877174 
 1069000   0.96840764    22.030005      58.1443 
 1070000   0.93415704     23.12454    58.242094 
 1071000    1.0025485    22.661606    58.668098 
 1072000    0.9676054    22.331634    59.004602 
 1073000    1.0703841     22.77639    58.836427 
 1074000    1.0688063    22.226197    58.807851 
 1075000    0.9719487    21.963326     58.64298 
 1076000    1.0437052    22.670147    58.697945 
 1077000    1.0413306    22.806629    58.611425 
 1078000    0.9868533    23.045059    58.494307 
 1079000     1.009313    23.004137    58.219537 
 1080000    1.0141488    23.446415    57.812985 
 1081000   0.98678731    22.825713      57.9066 
 1082000     1.019247    23.036851    57.958246 
 1083000   0.98436761    22.003279    57.937486 
 1084000    1.0716678    23.087119     58.00146 
 1085000    1.0163168    22.647682    58.082982 
 1086000   0.99811295    22.702444    57.872339 
 1087000    1.0352404    22.665223    57.907213 
 1088000   0.96385398    22.632488     57.87287 
 1089000   0.99257748      22.6281    57.525283 
 1090000   0.99384661    22.928429    57.464136 
 1091000   0.98835987    22.201312    57.374029 
 1092000   0.96809852    23.370986    57.367404 
 1093000   0.96109154    22.306958     57.28799 
 1094000    1.0104106    22.982713    57.211339 
 1095000    1.0560751    22.250282    57.020729 
 1096000    1.0404529    22.827176    57.351432 
 1097000    1.0350831    22.740616    57.541034 
 1098000    1.0364046    23.339558    57.569488 
 1099000   0.93497398     23.55019     57.64792 
 1100000    1.0213491    23.021386    57.417035 
 1101000     1.014503     22.94856    57.376089 
 1102000    1.0528915    22.982954    57.287717 
 1103000    1.0125961    22.278763    57.247921 
 1104000    0.9842337    22.871554     57.25826 
 1105000    1.0174811    23.432403    57.388265 
 1106000   0.96234576    21.904458    57.560014 
 1107000    1.0811731    23.320836    57.433308 
 1108000    1.0496232    22.469616    57.291226 
 1109000    1.0642157    22.124339    57.546632 
 1110000   0.96226536    21.843549    57.686817 
 1111000   0.97398557    23.520386    57.805707 
 1112000    1.0585529    22.937592    57.736002 
 1113000    1.0265784    23.203237    57.722078 
 1114000    1.0431469    23.779405    57.721294 
 1115000   0.98753684    23.147456    57.713877 
 1116000   0.94598786    22.109644    57.732685 
 1117000   0.98871539    23.016733    57.840324 
 1118000   0.97847081    22.977843    57.797084 
 1119000    1.0174521    22.756654    57.933779 
 1120000    1.0113768     22.80558     57.79371 
 1121000    1.0003782    22.801618    57.806328 
 1122000    1.0462291    23.513952    57.767748 
 1123000    1.0162967    23.261441    57.659899 
 1124000    0.9993859    22.985979    57.370888 
 1125000   0.94199617    21.981325    56.970404 
 1126000   0.96179256     22.24009    56.940386 
 1127000   0.95666763    22.734809    56.807456 
 1128000    1.0412252    22.523187    56.739801 
 1129000    1.0342558    23.064222    56.775972 
 1130000   0.99615592    22.519552    56.481714 
 1131000    1.0103719    22.177484    56.347813 
 1132000    1.0109923    23.047141    56.075172 
 1133000    1.0199895    22.944523    56.024587 
 1134000   0.99258835    22.569027    55.856614 
 1135000   0.99457812    22.816531    55.731941 
 1136000   0.98264489    21.901999    55.765512 
 1137000     1.036348    22.934802    56.091762 
 1138000   0.97589783    22.246133    56.388815 
 1139000    0.9270336    22.256632    56.165971 
 1140000    1.0122921    22.667368    56.146367 
 1141000   0.97056639    23.156747    56.137059 
 1142000   0.96562517    22.479304    55.921542 
 1143000    1.0968254    23.050458    55.703492 
 1144000    1.0492127    22.310541    55.551768 
 1145000    0.9955129    22.293685     55.62499 
 1146000   0.98331385    22.509505    55.857467 
 1147000    1.0417061    21.030377     55.97247 
 1148000    0.9761818    22.343259    56.138033 
 1149000    1.0106262    22.749878    56.235742 
 1150000    1.0058092    21.493354    56.463073 
 1151000    1.0227395    21.779033    56.289865 
 1152000    1.0052571    22.570126     56.37598 
 1153000    1.0817113     22.49195    56.394032 
 1154000    1.0042674    22.165862    56.924657 
 1155000     1.043645    22.931729    56.923846 
 1156000   0.98210186    22.726502    56.956611 
 1157000    0.9438718    21.766347    56.395664 
 1158000   0.96631191    22.619794    56.013689 
 1159000    1.0529344    22.688098    55.891808 
 1160000    1.0592903     22.50186     56.04381 
 1161000   0.92368377    21.677651    56.350162 
 1162000    1.0227755    23.694694    56.545864 
 1163000   0.98460836    22.650356    56.485794 
 1164000   0.99875667    24.035965    56.534281 
 1165000    1.0269328    22.828714    56.426564 
 1166000    1.0694134    23.342847    56.414439 
 1167000   0.98992968    22.751813    56.513985 
 1168000   0.95989172    22.275863    56.605379 
 1169000    0.9422643    22.536999    56.611169 
 1170000    1.0229857    22.344159    56.687481 
 1171000   0.97218926    22.396601    56.820882 
 1172000     1.030176    23.101273    56.751831 
 1173000   0.97555794     22.92017    56.667752 
 1174000   0.96666393    21.825845    56.725259 
 1175000    1.0187011    22.830291    56.153324 
 1176000   0.98184279    22.010973    56.162454 
 1177000   0.98169929    22.840157     55.94888 
 1178000    1.0397879    23.289046    55.897748 
 1179000    1.0492962    23.850086    55.626741 
 1180000    1.0043098    23.255737    55.472207 
 1181000    1.0361102    23.053182    55.514927 
 1182000    1.0269751     22.83328    55.316518 
 1183000    1.0252076    23.693791    55.128478 
 1184000    1.0394524    23.034213    55.255118 
 1185000    1.0657084    23.554053    55.337687 
 1186000   0.97483398    22.623362    55.411542 
 1187000   0.96860895    23.051082    54.856914 
 1188000   0.96309071    22.861118    54.972579 
 1189000    1.0257264    23.094952    54.991906 
 1190000   0.98250343    22.180466     55.28238 
 1191000   0.99311568    22.386431    55.078565 
 1192000    1.0343258    23.351867    55.055963 
 1193000    1.0264979    22.501519    54.991893 
 1194000    1.0205988    23.630015    55.146565 
 1195000   0.95432288    22.292514    55.187498 
 1196000   0.99343707    22.738692    55.159477 
 1197000    1.0248556     22.06954    55.048622 
 1198000    1.0679406    22.213191     55.08518 
 1199000    1.0240623    21.789989    55.117843 
 1200000   0.95460328    23.164596    55.000459 
 1201000    1.0566191    22.071373    54.732944 
 1202000   0.90840519    21.920011      54.5188 
 1203000    1.0483726     22.65773    54.055726 
 1204000   0.96142092    21.814482    54.215426 
 1205000    1.0243444    23.990054    53.920871 
 1206000   0.95810051    22.989148    54.020114 
 1207000   0.97449094    22.109562    54.090744 
 1208000    0.9473108     22.55677    54.119892 
 1209000    1.0487793    22.652441    53.894257 
 1210000   0.95881121    22.894378    53.676192 
 1211000    1.0000635    22.821884    53.951967 
 1212000    1.0365589    21.829909    53.909722 
 1213000     0.926402    22.442897    53.942007 
 1214000   0.98990441    21.693892    54.003496 
 1215000   0.98723394    22.333771    53.831658 
 1216000   0.92756523    22.368238    53.747342 
 1217000   0.97388739     22.54628    53.674424 
 1218000    1.0428164    22.493971    53.712358 
 1219000   0.99415335    23.281968    53.387184 
 1220000    1.0114044    23.058378    53.445695 
 1221000    1.0230305    22.878188    53.723187 
 1222000    1.0443839    21.503096    53.658739 
 1223000   0.97879135    22.884704    53.708079 
 1224000    1.0114936     23.23799    53.615433 
 1225000   0.94851292    23.331096    53.739226 
 1226000    1.0231152    22.816149     53.64642 
 1227000    1.0238646    22.936019    53.501797 
 1228000    1.0229543    22.556768    53.311536 
 1229000     1.051232    23.074119    53.405111 
 1230000    1.0326132    23.229457    53.362816 
 1231000    1.0242338    22.335047    53.380993 
 1232000   0.95093047    22.209033    53.307767 
 1233000    1.0234538    22.352471    53.323052 
 1234000    1.1008092    23.198913    53.296909 
 1235000    1.0497634    22.526875    53.251032 
 1236000   0.98609412    22.927301    53.348409 
 1237000    1.0490432    22.791374    53.799801 
 1238000   0.95772633    22.627866    53.688742 
 1239000     1.046715     22.11938    53.920691 
 1240000     1.016484    22.623153    54.187937 
 1241000   0.98187863    22.516156    54.449677 
 1242000    1.0548069     23.75506    54.609557 
 1243000    0.9864781    22.277839    54.873118 
 1244000    1.0467211    22.920745     55.12661 
 1245000   0.93919024    23.109555    55.244005 
 1246000   0.92029979    22.743105    55.155232 
 1247000    1.0133127    22.653613    55.516952 
 1248000   0.96223412      23.0331    55.653785 
 1249000    1.0673586    23.118484     55.70675 
 1250000   0.97994543    23.037409    55.442467 
 1251000   0.95104118    22.380609    55.428688 
 1252000    1.0163341    22.630196    55.315766 
 1253000    1.0070919    22.365419     55.02032 
 1254000    1.0167312     21.89795    55.243567 
 1255000   0.99876977    22.441571    55.226712 
 1256000   0.98532736    22.378519    55.211703 
 1257000    1.0049533    22.464586      54.8911 
 1258000    1.0462838    22.182793    54.593918 
 1259000   0.99562718     23.22363    54.658658 
 1260000    1.0590735    22.986888    54.572212 
 1261000    1.0455356    22.652948    54.450884 
 1262000    1.0309846    22.081957    54.438335 
 1263000   0.95466191     21.78678    54.522384 
 1264000   0.95602243    22.524146    54.664582 
 1265000    1.0410432    22.841572    54.942897 
 1266000   0.98148847    22.729667    55.112684 
 1267000   0.93961498    22.314402     54.92656 
 1268000    1.0243649    22.538025    54.929498 
 1269000     1.036773    23.091719    54.793358 
 1270000     1.026775     22.69142    54.621477 
 1271000    1.0199068    23.758255    54.385551 
 1272000    1.0120834    23.590243    53.892789 
 1273000    1.0263713    22.667739     53.88608 
 1274000    1.0264781     22.88602     53.91488 
 1275000   0.96651013    22.426256    53.833337 
 1276000    1.0048218    21.929847    54.063247 
 1277000   0.97715498    23.142272    53.929859 
 1278000   0.96451852    22.373327    54.065175 
 1279000   0.99262737    23.189924    53.988405 
 1280000    1.0263583    22.716667    54.022471 
 1281000    1.0010895     22.78344    54.077691 
 1282000    1.0234592    22.475976    53.803142 
 1283000    1.0049661    23.985547    53.883454 
 1284000    1.0095295    22.717598    53.818905 
 1285000    1.0500853    22.773878     53.85441 
 1286000    1.0021408      21.9571    54.055226 
 1287000   0.99845604    22.102426    54.104823 
 1288000    1.0059509    22.737153    54.227171 
 1289000   0.95297054    22.223662    54.320555 
 1290000   0.98828449    23.151288    54.384436 
 1291000    1.0300168    23.230776    53.955698 
 1292000      1.07358    22.845242    54.044762 
 1293000    1.0441118    22.879448    54.129758 
 1294000     1.004264    22.395095    54.241269 
 1295000    1.0292413    21.845254    54.280833 
 1296000    1.0613828    22.259091    54.695068 
 1297000    1.0028504    23.351605    54.904477 
 1298000   0.96949498    21.987548    54.670064 
 1299000    1.0357035    22.966053    54.715557 
 1300000   0.98375356    22.328562    54.766607 
 1301000    1.0305609    22.241654    54.620118 
 1302000    1.0633788     22.35914    54.673683 
 1303000    1.0527193    24.323828    54.333965 
 1304000   0.97759453    21.905687    54.478149 
 1305000   0.95756569    22.854305    54.264542 
 1306000    1.0282805     22.87907    54.056264 
 1307000   0.99735592    22.964398    54.097468 
 1308000   0.95806795    22.419063    54.006152 
 1309000   0.98603553    21.696442     53.96326 
 1310000   0.92986735    22.375493    54.095844 
 1311000    1.0244508    22.994817    54.076544 
 1312000    1.0238202    23.190619    53.939295 
 1313000   0.98204681    23.131515     53.91325 
 1314000   0.94522064     22.73957    53.824715 
 1315000    1.0495455    22.889199    53.704754 
 1316000   0.99181763    22.599856    53.888205 
 1317000    1.0076345    22.846226    53.794253 
 1318000    1.0254874    22.882372    53.822713 
 1319000    1.0082951    22.359603    53.594373 
 1320000   0.97581102    23.026704    53.907133 
 1321000    1.0320594    22.703162    53.985874 
 1322000    1.0679834    22.058881    54.098686 
 1323000    1.0561376    22.393503    53.988295 
 1324000   0.95409677    22.434106    53.792722 
 1325000   0.99728691    22.943349    53.629769 
 1326000   0.98739452    22.503164    53.717729 
 1327000    1.0152607    22.221324    53.574031 
 1328000   0.92686925    22.882975     53.47095 
 1329000   0.99067586    22.348586    53.324853 
 1330000   0.99904424    22.611625    53.551766 
 1331000   0.95835874    22.054229    53.403299 
 1332000    1.0540541    22.172242    53.343797 
 1333000   0.95551234    22.648089    53.243177 
 1334000    1.0696281    23.068205    53.237972 
 1335000     1.020267    22.151896    53.193635 
 1336000     1.045868    22.159696    53.292142 
 1337000   0.97182105    22.935886    53.174932 
 1338000   0.97694082    22.700917    52.911316 
 1339000   0.98059814    22.676226    52.460064 
 1340000     1.038425    23.049317    52.713239 
 1341000   0.94715514    22.946188     53.07858 
 1342000     1.095058    23.042059    53.120158 
 1343000   0.96733799    22.061057    53.013788 
 1344000    1.0331633    22.621717    52.947941 
 1345000    1.0116387    22.611355    52.818269 
 1346000    1.0000298    23.318732    52.884213 
 1347000   0.99130888    22.279677    52.933861 
 1348000   0.98995493    23.262164     52.92411 
 1349000    1.0118704    22.588203    52.900393 
 1350000   0.99554202    22.822519    52.612223 
 1351000   0.98071381    22.655827    52.627445 
 1352000    0.9600098    21.781443    52.902815 
 1353000    1.0031282    22.614069    52.758563 
 1354000   0.99288143     23.24114    52.581523 
 1355000    1.0164431    23.540756    52.709602 
 1356000    1.0578885     22.61922    52.571924 
 1357000    1.0034193    22.637979    52.618636 
 1358000   0.94509407    22.442591    52.571074 
 1359000    1.0466121    22.757679    52.831441 
 1360000   0.97730764      22.4975    52.866275 
 1361000   0.99913063    22.283458    52.939259 
 1362000    1.0048078     22.52254    53.007682 
 1363000   0.98254471    23.371259    52.949752 
 1364000    1.0723641    22.738051    52.698947 
 1365000    1.0421376    22.741177    52.596353 
 1366000   0.94766664    23.538597    52.524925 
 1367000   0.98290374    23.204857    52.472542 
 1368000    1.0174723     23.02272    52.503112 
 1369000   0.99750627    22.524052    52.699109 
 1370000   0.98153853    22.970156    52.660643 
 1371000   0.99596489     22.51394    53.148598 
 1372000   0.98701609     23.05989    53.140549 
 1373000   0.96817314      22.5304    52.816879 
 1374000    1.0334264    22.967035    53.018561 
 1375000    1.0266339     23.39303    52.895819 
 1376000    1.0634285     22.96897    53.027312 
 1377000    1.0470982    22.879982    53.068335 
 1378000   0.90960383    22.795967    53.137983 
 1379000    1.0415485    22.665065    52.856008 
 1380000    1.0378572    22.476525    52.738429 
 1381000   0.98174185    22.098202    52.755812 
 1382000   0.93769882    21.870582    53.192827 
 1383000    1.0391862    22.267095     53.32691 
 1384000   0.98197723    22.137996    53.316331 
 1385000    1.0187525    22.425944    53.543806 
 1386000   0.94649959    22.521278    53.850906 
 1387000    1.0300576     22.88743    53.799839 
 1388000      1.04764    22.784356    53.764184 
 1389000    0.9766986    22.215423    53.402936 
 1390000    1.0298142    23.157517    53.182403 
 1391000    1.0319994    22.338662    52.873999 
 1392000   0.98012685    22.276892    53.060907 
 1393000    1.0544077    23.009231    52.785832 
 1394000   0.99590661    21.863264    52.556619 
 1395000    1.0037633    23.627744     52.36668 
 1396000    1.0049963    23.380996    52.256675 
 1397000   0.96738793    22.187807    52.271477 
 1398000    1.0555458    22.440969    52.157326 
 1399000   0.97203113    22.622749    52.333959 
 1400000   0.99227263    23.169491     52.32573 
 1401000    1.0408712    22.307442    52.146418 
 1402000    1.0350332    21.616015    52.140853 
 1403000    1.0191697    22.354755     51.89214 
 1404000    1.0439681    22.779115    51.710116 
 1405000    0.9881399    22.773287    51.757076 
 1406000   0.98995118    23.106698    52.089191 
 1407000    1.0214013    23.855051    52.114321 
 1408000   0.98556063    22.745523    51.749061 
 1409000   0.98795485    22.617315    51.478189 
 1410000    1.0383611    23.906098    51.533666 
 1411000   0.98492572    22.506694    51.260184 
 1412000   0.97993427    22.537291    51.244725 
 1413000    1.0220185     23.27422    51.650728 
 1414000   0.99823315    22.832121    51.629092 
 1415000    1.0838822    22.456751    51.252197 
 1416000     1.005277    22.315053    51.259687 
 1417000   0.99505224    23.338852    51.205106 
 1418000    1.0111659    22.696658     51.12584 
 1419000   0.97828262    22.197307    51.300171 
 1420000      1.03457    23.618988    51.217511 
 1421000     1.011767    24.084785    51.284362 
 1422000   0.94817736    21.994931    51.484093 
 1423000   0.97806287    22.453118    51.812512 
 1424000   0.99271848    22.481099    51.568111 
 1425000   0.99171873    22.682357    51.380477 
 1426000    1.0178025    22.926874    51.665915 
 1427000   0.97890078    22.237885     51.57691 
 1428000   0.96989982    22.277161    51.787572 
 1429000    0.9805987    22.472642    51.754192 
 1430000   0.98444698     22.29767    51.649865 
 1431000    1.0202934    22.431459    51.727533 
 1432000   0.99386851     22.48085    51.343774 
 1433000    1.0010208    23.184397     51.56829 
 1434000    1.0115508    22.783253     51.63566 
 1435000    1.0271502    23.414365    51.705924 
 1436000    1.0017899    22.890233    51.885082 
 1437000    1.0012564    23.150107     52.01898 
 1438000   0.99688868    23.056641    51.607922 
 1439000   0.99090067    23.206681    51.673451 
 1440000   0.93271676    22.115406    51.282127 
 1441000   0.97526721    22.572913    51.300503 
 1442000    1.0640053    22.880016    51.109884 
 1443000   0.96313573    23.387892    51.662698 
 1444000    1.0290942    22.387037    51.620415 
 1445000    1.0093919    22.964848    51.541608 
 1446000    1.0471459    22.817827    51.485472 
 1447000   0.95524022    22.735086    51.583973 
 1448000    1.0675915    23.268777    51.272895 
 1449000   0.96836469    22.558795    51.378251 
 1450000    1.0259335    23.339925    51.286887 
 1451000    1.0086965    21.730491    51.518581 
 1452000    1.0272485    22.953476    51.422767 
 1453000    1.0572115    22.957832    51.673436 
 1454000    1.0159037    23.565531    51.894001 
 1455000   0.96415574    22.363077    52.195092 
 1456000    1.0500824    23.340457     52.46533 
 1457000   0.97505308    22.946144    52.293559 
 1458000    1.0274435    22.886378    52.141416 
 1459000   0.96580614    21.690824    52.178622 
 1460000    1.0159197    22.710948    52.354273 
 1461000   0.99875998    22.306161    52.260339 
 1462000   0.99872986    22.244396    52.071045 
 1463000    1.0077075    21.669255    52.058773 
 1464000   0.93755137    22.421279    52.227132 
 1465000   0.99634706    23.155813    52.473861 
 1466000   0.93867627    22.432245    52.551472 
 1467000   0.98776613    22.291409     52.70039 
 1468000    1.0375977    23.483933    52.808476 
 1469000   0.96351414    23.260921    52.653066 
 1470000    1.0684906    22.304169     52.66888 
 1471000    1.0815457    22.663658    52.765418 
 1472000   0.99989229    22.182777    52.677143 
 1473000    1.0274251    22.499208    52.788421 
 1474000   0.95822721    22.508926    52.553895 
 1475000    1.0339612    22.269746    52.600107 
 1476000    1.0148801    22.975653    52.547553 
 1477000    1.0000854    22.026806    52.669483 
 1478000    1.0285589    23.774678    52.495184 
 1479000   0.94144578    23.458488    52.518922 
 1480000    1.0025194    23.011365    52.562964 
 1481000    1.0092219    23.021545    52.330426 
 1482000    0.9879802    22.696627    52.066838 
 1483000    1.0101768    23.124696    51.968158 
 1484000    1.0496033    22.534928    51.845803 
 1485000   0.91485202    22.877605    51.920052 
 1486000   0.99335969    22.191786    51.886926 
 1487000    1.0495019    23.359712    51.851151 
 1488000   0.99839817    22.687332    51.578295 
 1489000   0.98774411    22.974607    51.352299 
 1490000    1.0552891    23.187562    51.203383 
 1491000   0.98785974     22.47593    51.265613 
 1492000    1.0090998    21.873881    51.176955 
 1493000    1.0044361    22.163666    50.944155 
 1494000   0.99392717    22.930793    50.700351 
 1495000    1.0519552    22.625506    50.524133 
 1496000    0.9175875    23.128215    50.378362 
 1497000   0.92695403    22.816108    50.149467 
 1498000    1.0036315    22.858216    50.179159 
 1499000    1.0077937    22.674308    49.900297 
 1500000   0.99656987    22.979101    49.826207 
 1501000   0.96805944    22.109721    49.690473 
 1502000   0.96798796    23.415801    50.107573 
 1503000    0.9894655    22.355873    49.864146 
 1504000    1.0282459    21.586982    50.107651 
 1505000     1.008558    22.783296    50.075938 
 1506000   0.89739424    22.337267      50.1137 
 1507000    1.0257957    23.501692    50.257956 
 1508000   0.99907386    22.683271     50.25472 
 1509000     1.000204    23.465872    50.400822 
 1510000   0.99240105    22.517914    50.399325 
 1511000   0.94324836    22.495464    50.517653 
 1512000   0.99253522    22.034008    50.658511 
 1513000    1.0122735    23.170618    50.775921 
 1514000     1.011351    22.565967    50.769605 
 1515000    1.0728976    23.075649    50.549953 
 1516000    1.0173705    22.614278    50.535984 
 1517000    1.0196052    23.097515      50.4945 
 1518000   0.99098657    21.889036    50.397284 
 1519000    1.0218241     22.28553    50.264437 
 1520000    1.0448576    22.277566    50.374922 
 1521000    1.0142713    22.418183    50.257707 
 1522000    1.0044333    22.367684    50.190916 
 1523000   0.94449373    22.762816    50.034913 
 1524000    1.0314979     23.09984    49.641998 
 1525000    0.9688604    22.737853    49.490197 
 1526000   0.91528458    22.134252     49.52499 
 1527000    1.0265746    22.632025    49.694621 
 1528000    1.0732571    22.805417    49.914513 
 1529000   0.98963568    22.201203     49.85303 
 1530000   0.99692173    22.352437    49.875566 
 1531000   0.99990302    22.184165    50.007051 
 1532000    1.0667514    22.266061    49.858326 
 1533000    0.9469851    23.206903    49.932204 
 1534000   0.97879036    22.354783    50.129338 
 1535000   0.97106066     22.48168    50.185826 
 1536000    1.0011211    22.177306    50.142367 
 1537000    1.0165452    22.654864    49.930918 
 1538000    1.0563315    23.069868    50.022464 
 1539000    1.0291623    23.182854    49.951462 
 1540000   0.98556345    22.092109    50.360424 
 1541000    1.0090277    22.843622    50.219465 
 1542000    1.0566829    22.960719     50.50963 
 1543000   0.95505976    22.923208    50.346845 
 1544000   0.99077541    22.331876    50.679163 
 1545000    1.0128578    23.170526    50.654084 
 1546000    1.0487865    22.948955    50.497377 
 1547000   0.96704314    22.711896    50.672276 
 1548000    1.0438153    22.680811    50.548668 
 1549000    1.0375651    23.590954    50.338664 
 1550000    1.0030016    22.472658     50.45417 
 1551000   0.97995792    21.814231    50.132052 
 1552000    1.0281489    22.992204    50.487949 
 1553000   0.99958259     23.09956    50.636495 
 1554000   0.97427639    23.887536     50.64653 
 1555000    1.0063019    23.249425     50.13857 
 1556000   0.93186771    22.402039    50.109235 
 1557000   0.99637976     23.13672    49.769585 
 1558000   0.95227696    22.649679    49.670152 
 1559000    1.0239401    21.921797     49.96975 
 1560000    1.0050954    22.525014    50.101925 
 1561000    1.0203648    22.958222    49.908561 
 1562000   0.99665459    22.787455    49.561882 
 1563000    1.0276666    23.019035     49.45719 
 1564000   0.97280553    22.248437     49.31739 
 1565000   0.99262116    23.557684    49.307535 
 1566000   0.97760521    23.096098    49.392169 
 1567000    1.0344067    23.385493    49.420644 
 1568000   0.97307598    22.650849    49.449413 
 1569000   0.96271706    22.294622    49.509104 
 1570000   0.97424924    22.343564    49.426633 
 1571000    1.0551218    23.170271    49.506102 
 1572000   0.95565095    23.458326    49.693906 
 1573000   0.93596122    21.975933    49.422978 
 1574000   0.94555963    22.907875    49.192261 
 1575000   0.98796121    22.519093    49.211601 
 1576000    1.0459116    23.148663    49.210444 
 1577000    1.0334882    21.696145    49.160661 
 1578000   0.91309558    21.660871    49.341795 
 1579000    1.0111008    22.931451    49.293478 
 1580000   0.94180503     22.11886     49.32819 
 1581000   0.93753992    21.952326    49.305107 
 1582000   0.94255728    22.560268    49.104975 
 1583000   0.97931951    22.456046    49.097966 
 1584000   0.99073671    22.647008    48.906061 
 1585000   0.98826367     22.04635    48.728717 
 1586000   0.96811853     23.06545    48.599106 
 1587000    0.9779367    22.681906    48.488834 
 1588000   0.99557397    22.748188    48.369201 
 1589000    1.0274424    22.934012    48.319134 
 1590000    1.0153331    22.920995    48.433219 
 1591000   0.99227688     22.48505    48.278143 
 1592000   0.97890517    23.302098    48.030015 
 1593000   0.86312223    22.065202    48.031574 
 1594000    1.0264089    23.450777    47.980611 
 1595000    1.0189508    22.952544    48.008633 
 1596000    1.0068487     22.28736    48.017373 
 1597000   0.99024384    21.942898    47.964643 
 1598000   0.99722505    22.695988     47.61382 
 1599000    1.0206658    21.828682    47.666711 
 1600000   0.98803929    22.985737    47.708638 
 1601000    1.0364371    22.211022    48.110207 
 1602000   0.93641102    22.965244    48.172265 
 1603000   0.93672565    22.941784    48.244452 
 1604000   0.97604494    23.294224    48.123414 
 1605000   0.97048452    22.401342    48.183909 
 1606000   0.95896826     22.70221    47.985628 
 1607000   0.93540862    22.895333    47.938452 
 1608000    1.0508346    23.408858    48.032851 
 1609000   0.97813212    22.414921    47.983544 
 1610000    1.0557264    23.139639    47.812084 
 1611000   0.99590681    22.644941    47.505785 
 1612000    1.0127427    22.802192     47.39272 
 1613000   0.95308468    22.476711    47.030078 
 1614000   0.93291595    22.310623    47.125086 
 1615000    1.0524487    22.509596    47.141135 
 1616000    1.0062032    22.228611    47.393164 
 1617000   0.94516085    22.857774    47.333741 
 1618000   0.98219209    22.435991    47.605219 
 1619000    1.0213107    22.798055    47.682346 
 1620000   0.97147132    22.453932    48.071377 
 1621000    1.0421373    22.849674    48.073268 
 1622000   0.97882126    22.986351    47.948571 
 1623000   0.99489963    22.493247    48.149795 
 1624000   0.96850468    21.159315    48.545683 
 1625000   0.95383041    22.834545    48.413683 
 1626000   0.95835234     22.52077    48.600198 
 1627000   0.98251262    23.426703    48.391348 
 1628000   0.95638815    21.867315    48.474047 
 1629000   0.98324094    22.545029    48.484946 
 1630000    0.9150098    22.284053    48.665919 
 1631000   0.95310328    22.818289    48.539255 
 1632000    1.0481414    22.822606    48.733944 
 1633000    1.0308116    22.436412    49.005463 
 1634000    1.0574209    23.728948    49.292858 
 1635000   0.99167909    22.565593    49.293339 
 1636000    1.0026729    22.676722    49.302831 
 1637000    0.9464582    22.612307    49.404607 
 1638000   0.95982197    22.336515    49.383202 
 1639000   0.99161664     22.82028    49.507109 
 1640000    1.0285872    23.203765    49.153544 
 1641000   0.96957356    22.261071    49.171505 
 1642000     1.023023    22.572446    49.080246 
 1643000    1.0149826    22.438608     49.00597 
 1644000    1.0147911    22.691845    48.908593 
 1645000     1.010704    22.580591    48.817856 
 1646000   0.98996901    22.114583    48.930205 
 1647000   0.97957724    22.167996    48.914719 
 1648000   0.96291405     22.63372    49.134129 
 1649000   0.95233442    22.103745    49.161422 
 1650000   0.99693089    22.431889    49.389044 
 1651000    0.9889407    22.438876    49.490818 
 1652000    1.0176653    22.951088    49.497272 
 1653000    1.0386695    22.553304    49.235131 
 1654000    1.0372507    22.354304     49.00379 
 1655000   0.96852678    22.106262    48.953256 
 1656000   0.99222349    22.887894    48.950102 
 1657000     1.025616     23.26583    48.938904 
 1658000   0.98507873    23.134271    48.937541 
 1659000    1.0115087    22.782963    48.755725 
 1660000   0.99227912    22.897253    48.864252 
 1661000    1.0043692    22.431734    48.777478 
 1662000   0.98650188    22.953377    48.811119 
 1663000    1.0129112    23.667425    48.934782 
 1664000   0.98754386    22.458698    48.848034 
 1665000    1.0076191    23.608877    48.925307 
 1666000    1.0335511    22.342922    48.790199 
 1667000   0.97778797    22.578299    48.828255 
 1668000    1.0214664    23.006702    48.592205 
 1669000   0.99169079     22.36251    48.317982 
 1670000   0.93099491    22.754759    48.530215 
 1671000    1.0349275    23.059335    48.747516 
 1672000    1.0178266    23.180282    48.521171 
 1673000   0.93853986    23.779865    48.533385 
 1674000     1.054395    23.007542    48.020876 
 1675000    0.9975075    23.147082    47.769966 
 1676000   0.96332979    23.009559    47.578237 
 1677000    1.0415534    23.010519    47.721619 
 1678000   0.96378777    22.508637    47.914654 
 1679000    1.0099943    22.991008    47.873631 
 1680000    1.0204104    22.919128    47.859469 
 1681000   0.93351382    23.175684    47.934324 
 1682000   0.98731621    23.283176    47.957238 
 1683000   0.96794461    22.397041    48.009349 
 1684000    1.0191651    22.713068    47.964463 
 1685000    1.0198439    23.369323    48.187794 
 1686000   0.95003583    22.089924    48.405076 
 1687000   0.94260799    22.373563    48.564345 
 1688000   0.96582466    22.420899    48.490731 
 1689000   0.97946488    22.074109    48.624044 
 1690000    1.0510189    22.977677    48.658892 
 1691000    1.0078388    23.078269    48.838572 
 1692000     1.026119    23.214493    48.573686 
 1693000    1.0418969    23.302085    48.528621 
 1694000   0.96811579    22.901764     48.18353 
 1695000   0.95986088    22.895701    48.188216 
 1696000   0.95395069    21.937744     47.87909 
 1697000     1.023653    22.810661    47.763425 
 1698000    1.1459771    22.864416    47.775682 
 1699000    1.0612715    23.298344    47.453141 
 1700000   0.97576932    23.110266    47.534061 
 1701000    1.0016475    22.477764     47.37902 
 1702000    1.0552345    21.596034    47.497721 
 1703000    1.0540494    22.059744     47.67727 
 1704000   0.97336197    21.862525    47.250845 
 1705000    1.0165028    23.791401    47.283738 
 1706000    1.0438652    22.350162    47.397682 
 1707000   0.96422071     21.83387    47.353283 
 1708000     0.994601    22.880237    46.921068 
 1709000    1.0715951    23.342646    46.418239 
 1710000    1.0276439     22.15864    46.455407 
 1711000   0.97676638    23.590534    46.554084 
 1712000   0.96312544    21.915388    46.453858 
 1713000    1.0841081    22.573097    46.590264 
 1714000   0.99502874    22.740811    46.813463 
 1715000    1.0224783    22.494223     46.63063 
 1716000   0.96579672    23.338362    46.556648 
 1717000    1.0222414    22.544639    46.513753 
 1718000   0.98457615    23.019234    46.365887 
 1719000    0.9579074    22.380582    46.463103 
 1720000   0.99129834    22.272408    46.607792 
 1721000    1.0330044    22.811787    46.693881 
 1722000   0.94006072    23.598334     46.68824 
 1723000   0.98428537    22.345072    46.705552 
 1724000    1.0098441    23.407005    46.533552 
 1725000    1.0709904     23.43616    46.307592 
 1726000    0.9403033    22.641894    46.017973 
 1727000    1.0351264    23.482433    45.970091 
 1728000    1.0277018    22.355832    45.827739 
 1729000    1.0171775    23.008695    46.020758 
 1730000   0.98553555    23.372282    46.064082 
 1731000    1.0298687    22.201372     46.02487 
 1732000   0.99960624    22.932522    45.782689 
 1733000    0.9943426     22.94212    45.794279 
 1734000    1.0574805    22.555884    45.864858 
 1735000    1.0496376      22.9222    45.885655 
 1736000    1.0229293    23.425645    46.070479 
 1737000    1.0272584    22.674123    46.156167 
 1738000    1.0371507    22.333821    46.303372 
 1739000    1.0470265     22.25141    46.174087 
 1740000    1.0064828    22.288872    46.365619 
 1741000   0.96735332    22.334923     46.57547 
 1742000   0.97664531    22.694902    46.383503 
 1743000    1.0100228    21.969917    46.125245 
 1744000   0.97359977    22.860153    46.167858 
 1745000    1.0186054    23.287701    46.119239 
 1746000   0.99331244    22.142196    46.417362 
 1747000   0.94455168    22.906451    46.395384 
 1748000     1.018381    22.299945    46.230707 
 1749000    0.9736584    23.063977    46.109799 
 1750000    1.0103374    22.431248    46.275953 
 1751000   0.94710352    22.203308    46.112547 
 1752000   0.99228513    23.605299    46.260743 
 1753000    1.0597168    22.405542    46.069552 
 1754000   0.99755268    22.958684    46.371717 
 1755000   0.94932879    22.696909    46.345897 
 1756000   0.99043365    22.899906    46.360831 
 1757000    1.0242334    23.054691    46.153077 
 1758000   0.99214709     23.10361    46.278827 
 1759000    1.0020954    21.729837    46.363897 
 1760000   0.94595965    22.672307    46.716397 
 1761000    1.0827938    22.832397    46.608445 
 1762000   0.98630666    22.185767    46.487145 
 1763000   0.96348572    21.975769    46.568147 
 1764000    1.0166195    22.318582    46.570735 
 1765000    1.0321133     22.98887    46.465985 
 1766000    1.0119169    22.222053    46.419898 
 1767000    1.0531664    22.431478    46.250915 
 1768000    1.0238488    22.068946    45.983942 
 1769000     1.022898     21.98774    45.933992 
 1770000    1.0132268    22.282407    46.065878 
 1771000   0.98351789    22.378081    46.258225 
 1772000    1.0775363    23.220579    46.714798 
 1773000    1.0275637    22.576477    46.622575 
 1774000   0.95732363     22.78903    46.658827 
 1775000    0.9888534    22.735921    46.695033 
 1776000    1.0295979    22.947215    46.452087 
 1777000   0.96326576    22.454576    46.532927 
 1778000    1.0090374    22.662236    46.691858 
 1779000    1.0316224    22.633415    46.576838 
 1780000   0.97103014    22.149544    46.565616 
 1781000    1.0227035    22.682674    46.285213 
 1782000    1.0438024    22.373657    46.716153 
 1783000     1.027488    22.850933    46.763616 
 1784000   0.98519577    22.413899    46.833324 
 1785000    1.0580119     22.97415    46.782681 
 1786000    1.0602208    23.462821    46.834638 
 1787000   0.98805319    22.027573    46.877817 
 1788000    1.0402923    22.796613     46.83844 
 1789000   0.97912014    23.120876    46.642271 
 1790000    1.0677368    22.760877    46.364573 
 1791000    1.0039168    23.086643    46.192718 
 1792000    1.0187635    22.780806    46.379203 
 1793000   0.97743229     22.23007    46.337434 
 1794000    1.0139282     22.63496    46.329978 
 1795000    1.0670107    22.387747    46.296702 
 1796000    1.0503928     22.75103    46.141022 
 1797000   0.98237976    22.796823    45.957086 
 1798000    0.9631398    22.408804    45.861471 
 1799000    1.0134919     22.49118    45.544213 
 1800000   0.99136259    22.833406    45.474675 
 1801000    1.0000929     22.73347    45.279681 
 1802000    1.0267806    23.234286    44.893924 
 1803000    1.0250101    22.506831      44.8321 
 1804000    1.0123238    21.876578     44.78592 
 1805000    1.0101086    22.841858    44.711497 
 1806000    1.0007407     22.28809    45.046533 
 1807000     1.013439    22.902857    44.934154 
 1808000    1.0048672    23.046701    44.889392 
 1809000   0.96246752    22.945661    44.722442 
 1810000    1.0325047    23.474029    44.376747 
 1811000   0.97656174     23.75263    44.254323 
 1812000   0.94829328    22.589606    44.223747 
 1813000    1.0374213    22.718936     43.91478 
 1814000   0.95178745    23.222102    43.850059 
 1815000    1.0081474     23.18244    43.879557 
 1816000   0.94828729    21.988855    43.658087 
 1817000   0.96160754     22.68629    43.549322 
 1818000    1.0474701    22.440084    43.208015 
 1819000     1.014704    22.534671    43.354941 
 1820000   0.97056524    22.257282     43.48393 
 1821000    1.0707768     22.93928    43.472997 
 1822000    1.0101515    23.452454    43.350484 
 1823000    1.0281201    21.863438    43.445968 
 1824000    1.0419838    21.541214    43.609272 
 1825000   0.98372282    22.437873    43.854932 
 1826000    0.9110922    23.326665    43.575732 
 1827000   0.95970599    23.414649    43.239992 
 1828000   0.96366235    22.193751    43.332528 
 1829000   0.98779338    23.273557    43.321089 
 1830000   0.98966619    22.565439    43.146072 
 1831000   0.99919666    23.025008     43.13103 
 1832000    1.1065782    22.910256    43.047672 
 1833000   0.96007724    22.340879    43.276849 
 1834000    1.0186064    22.295764    43.265239 
 1835000   0.99769598    22.504157    43.101267 
 1836000    1.0131317    22.634665      43.0691 
 1837000   0.96735325    22.247879    42.842174 
 1838000   0.97660529    23.089753    43.271118 
 1839000    1.0174455    23.076741    42.848614 
 1840000   0.98973132    22.376559    42.874783 
 1841000    1.0031539    21.639804    42.937769 
 1842000    1.0510932    22.559028    43.041485 
 1843000   0.99598384    23.237532    43.194156 
 1844000    1.0399667    23.740722    42.842805 
 1845000    1.0265102    23.135917    42.692724 
 1846000    1.0410207    22.787833    42.742757 
 1847000    1.0036355    22.301271    42.804247 
 1848000   0.94198263    22.061418    42.537322 
 1849000   0.91336672    22.592494    42.714011 
 1850000   0.98303655    22.670107    43.118684 
 1851000    1.0835989    23.426407    43.163745 
 1852000    1.0217035    22.559486    42.988937 
 1853000    1.0260549    22.813894     42.63813 
 1854000    1.0067949    22.436027    42.221886 
 1855000    1.0058865    21.775415    42.180158 
 1856000   0.96674633    22.851213    42.260129 
 1857000    1.0078577    23.425735    42.097052 
 1858000    0.9598551    22.808686    42.244469 
 1859000    1.0187469    23.197759    42.227914 
 1860000    1.0147859     22.44955    42.097412 
 1861000    1.0334565    22.192687    42.016515 
 1862000   0.98492434    22.615773     42.32317 
 1863000    1.0311131    22.678361     42.36868 
 1864000   0.99174324    22.482214    42.052255 
 1865000    1.0370101    22.883299    41.786431 
 1866000    0.9471696    23.234316      41.7384 
 1867000    1.0357513    22.579305    41.706086 
 1868000    1.0148489    22.410709    41.433265 
 1869000    0.9646883    21.687094    41.379985 
 1870000    1.0261528    22.526212    41.458737 
 1871000   0.99010266    23.260216     41.60949 
 1872000     0.986712    23.497688     41.41775 
 1873000   0.92907153    21.965493     41.46201 
 1874000   0.96491656    22.528847    41.497934 
 1875000    1.0420148    22.921131    41.590476 
 1876000   0.97511041    22.577431    41.564452 
 1877000    1.0059683     23.20983     41.33601 
 1878000    1.0028281    22.407631    41.247088 
 1879000   0.95804266     21.83864    41.200107 
 1880000    1.0026569    23.554659    41.038862 
 1881000    1.0100591    22.698047    40.954958 
 1882000    1.0455826    22.982639    41.183055 
 1883000    1.0235041    23.428492    41.038445 
 1884000   0.99136095    22.580939    40.859785 
 1885000   0.97063945     22.87188    40.794314 
 1886000    1.0527673    23.327791     41.13536 
 1887000     1.080452    22.686699    41.242015 
 1888000    1.0192065    21.939677    41.256002 
 1889000    1.0039595    22.269907       40.897 
 1890000   0.92951788     21.87733     40.89568 
 1891000    1.0180555     22.75926     41.35537 
 1892000   0.96098822    23.625943    41.364274 
 1893000   0.95881543    22.414529    41.297659 
 1894000     0.995917    23.007892    41.213467 
 1895000    1.0481742    23.385319     40.96942 
 1896000    0.9700299    22.948299    40.947921 
 1897000   0.99605414    22.305036    40.663015 
 1898000   0.96583164    22.371472    40.761282 
 1899000    1.0003491    23.029905    40.879254 
 1900000    1.0163106    22.771318     40.68194 
 1901000    0.9930853    22.708224    40.665741 
 1902000    1.0060735    22.342003    40.267216 
 1903000   0.97604576      22.0849    40.179535 
 1904000    1.0323915    22.864722    39.904244 
 1905000    1.0186784    22.834743    39.856071 
 1906000    1.0263663    22.551126     39.59981 
 1907000    1.0233565    22.579886    39.223657 
 1908000   0.96240536    22.972825    38.886547 
 1909000    1.0085188    23.313257    38.496983 
 1910000    1.0553103    22.394042     38.60206 
 1911000    1.0181636    22.513461     38.70675 
 1912000   0.98017208    22.412399     38.56932 
 1913000    1.0182802    23.211012    38.558929 
 1914000    1.0282177    22.850285    38.562454 
 1915000   0.96700022      22.6097    38.409841 
 1916000   0.98449633    23.162242    38.441374 
 1917000    1.0031969    22.720771    38.740621 
 1918000    1.0248283     22.69333    38.545305 
 1919000     1.003465    22.361788    38.588552 
 1920000   0.98733158    22.333511    38.629593 
 1921000      0.92754    22.478096    38.798321 
 1922000   0.99285625    22.673776    38.842882 
 1923000   0.98720045    22.205832    39.041181 
 1924000   0.99509028    22.796324    38.979425 
 1925000   0.99691136    23.225799    39.187014 
 1926000    1.0077756    22.830981     38.99239 
 1927000   0.99103227    22.054651    39.024392 
 1928000   0.94287169    23.365606    38.910941 
 1929000   0.92583664    23.362456    38.646451 
 1930000   0.99815218    22.782074    38.996558 
 1931000   0.95176745     22.58062    39.076699 
 1932000   0.98388275    22.789234    39.078032 
 1933000   0.99043287       21.603    39.137554 
 1934000    1.0277823    22.662692    39.247534 
 1935000    1.0295755    22.601702    39.109182 
 1936000   0.99622382    22.036514     38.97227 
 1937000    1.0078069    23.015147    38.931284 
 1938000    1.0110277      22.7723    39.046403 
 1939000   0.98209646    22.909574    38.959789 
 1940000    1.0077794    22.775396    39.058828 
 1941000   0.99387388    21.649327    38.931164 
 1942000    1.0106373    22.929493    38.932827 
 1943000    1.0595054    22.845018    38.869232 
 1944000   0.99234959    22.373756    38.945194 
 1945000    1.0662002    22.351372     39.30876 
 1946000   0.99311792    22.022514    39.262089 
 1947000   0.99702644     21.86211    39.188977 
 1948000    1.0058453    23.050294    39.261139 
 1949000     1.010468    22.711819    39.236853 
 1950000    1.0035439    22.650239    39.164173 
 1951000   0.98204547    21.913426     39.22966 
 1952000    1.0497409    22.535719     39.16053 
 1953000    1.0157418    21.924948    39.031849 
 1954000   0.98810446    21.479123    39.436006 
 1955000    1.0383979    22.502726    39.407028 
 1956000    1.0275568    22.719508    39.494026 
 1957000   0.95728157    22.202677    39.411077 
 1958000     1.028113    22.780619    39.421063 
 1959000   0.99545827    23.099864    39.437532 
 1960000   0.94750004    22.321372    39.560471 
 1961000    1.0130445    22.677431    39.630643 
 1962000   0.95777564    21.545633    39.883398 
 1963000   0.98621661    21.915653    40.152852 
 1964000    1.0159038    22.250583    40.106007 
 1965000    1.0251782    22.268855    40.096355 
 1966000    1.0228457    23.197121    39.869295 
 1967000    1.0519491    22.601676    40.042697 
 1968000   0.91565108     22.52451     40.22683 
 1969000    1.0444971    23.286145     40.21222 
 1970000    1.0054302    23.442145    40.061058 
 1971000    0.9164862    21.767716    40.127326 
 1972000   0.99707485    23.511867     40.04761 
 1973000   0.93889435    21.996928    39.992066 
 1974000   0.98276625    22.143375    40.019282 
 1975000    1.0333053     22.40168    39.783598 
 1976000    1.0264883    24.002423    40.023136 
 1977000    1.0006094    22.746789    39.917105 
 1978000    1.0045831    22.610095    39.990206 
 1979000    1.0022891    22.439054    40.477578 
 1980000   0.97688854    21.877542    40.558188 
 1981000    1.0228089    23.747074    40.840304 
 1982000   0.99062133    22.758209    40.598007 
 1983000   0.99130717    23.076562    40.765196 
 1984000   0.97762467     23.15247    41.111394 
 1985000   0.98958137     22.40145     41.31115 
 1986000   0.97765271    23.006055    41.570539 
 1987000    1.0560366    22.671789    41.607052 
 1988000    1.0246384    23.008113    41.343141 
 1989000   0.96296535     22.20065    41.537851 
 1990000    1.0212025     22.83202    41.575875 
 1991000    0.9926227    22.080983    41.765773 
 1992000   0.97856478    21.670482    41.924293 
 1993000   0.97592874    22.274877     42.13155 
 1994000    1.0541232    22.877903    42.251279 
 1995000   0.95586196     23.02741    42.412057 
 1996000    1.0067329    22.752646    42.375721 
 1997000   0.94972486    22.810769     42.06226 
 1998000    1.0444124    22.602643    42.378525 
 1999000    1.0043845     22.81657    42.215569 
 2000000   0.97913724    22.454255    42.075727 
Loop time of 7073.25 on 1 procs for 2000000 steps with 500 atoms

Performance: 244300.676 tau/day, 282.755 timesteps/s
98.5% CPU use with 1 MPI tasks x 1 OpenMP threads

MPI task timing breakdown:
Section |  min time  |  avg time  |  max time  |%varavg| %total
---------------------------------------------------------------
Pair    | 25.599     | 25.599     | 25.599     |   0.0 |  0.36
Bond    | 43.211     | 43.211     | 43.211     |   0.0 |  0.61
Neigh   | 6863.5     | 6863.5     | 6863.5     |   0.0 | 97.03
Comm    | 0.38235    | 0.38235    | 0.38235    |   0.0 |  0.01
Output  | 87.752     | 87.752     | 87.752     |   0.0 |  1.24
Modify  | 48.521     | 48.521     | 48.521     |   0.0 |  0.69
Other   |            | 4.301      |            |       |  0.06

Nlocal:        500.000 ave         500 max         500 min
Histogram: 1 0 0 0 0 0 0 0 0 0
Nghost:         0.00000 ave           0 max           0 min
Histogram: 1 0 0 0 0 0 0 0 0 0
Neighs:        4681.00 ave        4681 max        4681 min
Histogram: 1 0 0 0 0 0 0 0 0 0

Total # of neighbors = 4681
Ave neighs/atom = 9.3620000
Ave special neighs/atom = 1.9960000
Neighbor list builds = 21727
Dangerous builds = 0
Total wall time: 1:57:55
